     Program PWSCF v.7.4.1 starts on  2Aug2025 at 11:47: 4

     Waiting for input...
     Reading input from standard input
Warning: card &CELL ignored
Warning: card / ignored

     Current dimensions of program PWSCF are:
     Max number of different atomic species (ntypx) = 10
     Max number of k-points (npk) =  40000
     Max angular momentum in pseudopotentials (lmaxx) =  4
     file Co.pbe-nd-rrkjus.upf: wavefunction(s)  4S 3D renormalized

     R & G space division:  proc/nbgrp/npool/nimage =       2
     Subspace diagonalization in iterative solution of the eigenvalue problem:
     a serial algorithm will be used

     Using Slab Decomposition

     bravais-lattice index     =            4
     lattice parameter (alat)  =      14.6990  a.u.
     unit-cell volume          =    1284.7966 (a.u.)^3
     number of atoms/cell      =            9
     number of atomic types    =            3
     number of electrons       =        93.00
     number of Kohn-Sham states=           56
     kinetic-energy cutoff     =      60.0000  Ry
     charge density cutoff     =     360.0000  Ry
     scf convergence threshold =      1.0E-06
     mixing beta               =       0.4000
     number of iterations used =            8  plain     mixing
     energy convergence thresh.=      1.0E-04
     force convergence thresh. =      1.0E-03
     Exchange-correlation= SLA  PW   PBE  PBE
                           (   1   4   3   4   0   0   0)
     nstep                     =          100

     celldm(1)=  14.698989  celldm(2)=   0.000000  celldm(3)=   0.467134
     celldm(4)=   0.000000  celldm(5)=   0.000000  celldm(6)=   0.000000

     crystal axes: (cart. coord. in units of alat)
               a(1) = (   1.000000   0.000000   0.000000 )
               a(2) = (  -0.500000   0.866025   0.000000 )
               a(3) = (   0.000000   0.000000   0.467134 )

     reciprocal axes: (cart. coord. in units 2 pi/alat)
               b(1) = (  1.000000  0.577350 -0.000000 )
               b(2) = (  0.000000  1.154701  0.000000 )
               b(3) = (  0.000000 -0.000000  2.140714 )

     PseudoPot. # 1 for Zr read from file:
     /home/tauqeer/Zr6MTe2/sudopoten/Zr.pbe-nsp-van.upf
     MD5 check sum: f06f7249673c13908de31cca45056a07
     Pseudo is Ultrasoft + core correction, Zval = 12.0
     Generated by new atomic code, or converted to UPF format
     Using radial grid of  887 points,  6 beta functions with:
                l(1) =   0
                l(2) =   0
                l(3) =   1
                l(4) =   1
                l(5) =   2
                l(6) =   2
     Q(r) pseudized with  6 coefficients,  rinner =    1.200   1.200   1.200
                                                       1.200   1.200

     PseudoPot. # 2 for Co read from file:
     /home/tauqeer/Zr6MTe2/sudopoten/Co.pbe-nd-rrkjus.upf
     MD5 check sum: fa92598a13981d18d918d1aa5ec52a54
     Pseudo is Ultrasoft + core correction, Zval =  9.0
     Generated by new atomic code, or converted to UPF format
     Using radial grid of  961 points,  6 beta functions with:
                l(1) =   0
                l(2) =   0
                l(3) =   1
                l(4) =   1
                l(5) =   2
                l(6) =   2
     Q(r) pseudized with 0 coefficients

     PseudoPot. # 3 for Te read from file:
     /home/tauqeer/Zr6MTe2/sudopoten/Te.pbe-rrkj.upf
     MD5 check sum: 22c11190d1be98e87836461ecdaaa002
     Pseudo is Norm-conserving, Zval =  6.0
     Generated by new atomic code, or converted to UPF format
     Using radial grid of 1191 points,  3 beta functions with:
                l(1) =   0
                l(2) =   0
                l(3) =   2

     atomic species   valence    mass     pseudopotential
     Zr               12.00    91.22400     Zr( 1.00)
     Co                9.00    58.93320     Co( 1.00)
     Te                6.00   127.60000     Te( 1.00)

     12 Sym. Ops. (no inversion) found

   Cartesian axes

     site n.     atom                  positions (alat units)
         1        Zr     tau(   1) = (   0.1186974   0.2055899   0.0000000  )
         2        Zr     tau(   2) = (   0.7626053   0.0000000   0.0000000  )
         3        Zr     tau(   3) = (  -0.3813026   0.6604355   0.0000000  )
         4        Zr     tau(   4) = (   0.2975946   0.5154489   0.2335668  )
         5        Zr     tau(   5) = (   0.4048109   0.0000000   0.2335668  )
         6        Zr     tau(   6) = (  -0.2024054   0.3505765   0.2335668  )
         7        Co     tau(   7) = (   0.0000000   0.0000000   0.2335668  )
         8        Te     tau(   8) = (   0.5000000   0.2886751   0.0000000  )
         9        Te     tau(   9) = (  -0.0000000   0.5773503   0.0000000  )

     number of k points=     9  Gaussian smearing, width (Ry)=  0.0100
                       cart. coord. in units 2pi/alat
        k(    1) = (   0.0000000   0.0000000   0.0000000), wk =   0.0555556
        k(    2) = (   0.0000000   0.0000000   0.5351785), wk =   0.1111111
        k(    3) = (   0.0000000   0.0000000  -1.0703570), wk =   0.0555556
        k(    4) = (   0.0000000   0.3849002   0.0000000), wk =   0.3333333
        k(    5) = (   0.0000000   0.3849002   0.5351785), wk =   0.6666667
        k(    6) = (   0.0000000   0.3849002  -1.0703570), wk =   0.3333333
        k(    7) = (   0.3333333   0.5773503   0.0000000), wk =   0.1111111
        k(    8) = (   0.3333333   0.5773503   0.5351785), wk =   0.2222222
        k(    9) = (   0.3333333   0.5773503  -1.0703570), wk =   0.1111111

     Check: negative core charge=   -0.000007

     Initial potential from superposition of free atoms

     starting charge      92.5264, renormalised to      93.0000

     negative rho (up, down):  3.646E-01 0.000E+00
     Starting wfcs are  102 randomized atomic wfcs

     Self-consistent Calculation

     iteration #  1     ecut=    60.00 Ry     beta= 0.40
     Davidson diagonalization with overlap
     ethr =  1.00E-02,  avg # of iterations =  2.0

     negative rho (up, down):  3.622E-01 0.000E+00

     total energy              =    -690.48058025 Ry
     estimated scf accuracy    <      20.64050148 Ry

[...]

     End of self-consistent calculation

          k = 0.0000 0.0000 0.0000 ( 10025 PWs)   bands (ev):

   -34.9563 -34.9474 -34.9474 -34.5197 -34.4887 -34.4887 -13.2788 -13.1610
   -13.1610 -13.0384 -12.9816 -12.9816 -12.9682 -12.9267 -12.9267 -12.6867
   -12.6710 -12.6710 -12.4919 -12.4185 -12.4185 -12.3936 -12.3932 -12.3932
     0.8128   1.4611   8.1824   8.1824   9.4799   9.4799   9.5401  11.0171
    11.0839  11.6127  11.6127  11.9216  11.9216  12.0344  12.1901  12.1901
    12.1958  13.5663  13.5663  14.4861  14.4861  14.5557  14.6366  14.6366
    14.7419  15.0951  15.0951  15.2687  15.2687  15.4434  15.6446  15.8800

[...]

     the Fermi energy is    14.1763 ev

!    total energy              =    -702.39909853 Ry
     estimated scf accuracy    <       0.00000030 Ry
     smearing contrib. (-TS)   =      -0.00379710 Ry
     internal energy E=F+TS    =    -702.39530144 Ry

     The total energy is F=E-TS. E is the sum of the following terms:
     one-electron contribution =    -135.67170798 Ry
     hartree contribution      =     115.76340721 Ry
     xc contribution           =    -147.25488839 Ry
     ewald contribution        =    -535.23211228 Ry

     convergence has been achieved in  15 iterations

[...]

     Forces acting on atoms (cartesian axes, Ry/au):

     atom    1 type  1   force =     0.00201552    0.00349098    0.00000000
     atom    2 type  1   force =    -0.00403103    0.00000000   -0.00000000
     atom    3 type  1   force =     0.00201552   -0.00349098    0.00000000
     atom    4 type  1   force =    -0.00081604   -0.00141343    0.00000000
     atom    5 type  1   force =     0.00163208    0.00000000    0.00000000
     atom    6 type  1   force =    -0.00081604    0.00141343    0.00000000
     atom    7 type  2   force =     0.00000000    0.00000000    0.00000000
     atom    8 type  3   force =    -0.00000000   -0.00000000    0.00000000
     atom    9 type  3   force =    -0.00000000   -0.00000000    0.00000000

     Total force =     0.007533     Total SCF correction =     0.000379

     BFGS Geometry Optimization
     Energy error            =      5.7E-05 Ry
     Gradient error          =      4.0E-03 Ry/Bohr

     number of scf cycles    =   1
     number of bfgs steps    =   0

     energy             new  =    -702.3990985338 Ry

     new trust radius        =       0.0040310325 bohr
     new conv_thr            =       0.0000010000 Ry

ATOMIC_POSITIONS (angstrom)
Zr               0.9243385653        1.6010013452        0.0000000000
Zr               5.9296928694        0.0000000000       -0.0000000000
Zr              -2.9648464347        5.1352646548        0.0000000000
Zr               2.3143691692        4.0086040470        1.8167690000
Zr               3.1496326617        0.0000000000        1.8167690000
Zr              -1.5748158308        2.7276619530        1.8167690000
Co               0.0000000000        0.0000000000        1.8167690000
Te               3.8891850000        2.2454220000        0.0000000000
Te               0.0000000000        4.4908440000        0.0000000000

     Writing config-only to output data dir ./tmp/Zr6CoTe2.save/ :
     XML data file
     NEW-OLD atomic charge density approx. for the potential

[...]

     Threshold (ethr) on eigenvalues was too large:
     Diagonalizing with lowered threshold

     Davidson diagonalization with overlap
     ethr =  1.09E-08,  avg # of iterations =  4.4

[...]

     Total force =     0.004599     Total SCF correction =     0.000115
     Energy error            =      4.7E-05 Ry
     Gradient error          =      2.4E-03 Ry/Bohr

[...]

     energy             old  =    -702.3990985338 Ry
     energy             new  =    -702.3991454690 Ry

     CASE: energy            _new < energy            _old

[...]

     number of scf cycles    =   3
     number of bfgs steps    =   2

     energy             old  =    -702.3991454690 Ry
     energy             new  =    -702.3991772759 Ry

     CASE: energy            _new < energy            _old

     new trust radius        =       0.0043340711 bohr
     new conv_thr            =       0.0000000100 Ry

ATOMIC_POSITIONS (angstrom)
Zr               0.9266585329        1.6050196471        0.0000000000
Zr               5.9250529342       -0.0000000000       -0.0000000000
Zr              -2.9625264671        5.1312463529       -0.0000000000
Zr               2.3130385919        4.0062994196        1.8167690000
Zr               3.1522938162       -0.0000000000        1.8167690000
Zr              -1.5761464081        2.7299665804        1.8167690000
Co               0.0000000000        0.0000000000        1.8167690000
Te               3.8891850000        2.2454220000       -0.0000000000
Te               0.0000000000        4.4908440000        0.0000000000

     Writing config-only to output data dir ./tmp/Zr6CoTe2.save/ :
     XML data file
     NEW-OLD atomic charge density approx. for the potential

     Check: negative core charge=   -0.000007

[...]

     Self-consistent Calculation

[...]

     Threshold (ethr) on eigenvalues was too large:
     Diagonalizing with lowered threshold

     Davidson diagonalization with overlap
     ethr =  5.75E-08,  avg # of iterations =  3.1

[...]

     total energy              =    -702.39918642 Ry
     estimated scf accuracy    <       0.00000002 Ry

     iteration #  7     ecut=    60.00 Ry     beta= 0.40
     Davidson diagonalization with overlap
     ethr =  2.09E-11,  avg # of iterations =  4.9

[...]

     End of self-consistent calculation

[...]

          k = 0.3333 0.5774-1.0704 ( 10014 PWs)   bands (ev):

   -34.9380 -34.9380 -34.9364 -34.5177 -34.4844 -34.4844 -13.1827 -13.1827
   -13.1779 -13.1779 -13.1371 -13.1287 -12.9841 -12.8684 -12.8684 -12.7836
   -12.6645 -12.6645 -12.5352 -12.5067 -12.5067 -12.4650 -12.4549 -12.4549
     1.8833   1.8833   7.9878   7.9878   9.0860   9.4203   9.4203   9.4850
    11.0001  12.0247  12.0247  12.1086  12.1086  12.1372  12.4800  12.8487
    13.0008  13.0008  13.1724  13.1724  13.3746  13.5349  13.5920  13.5920
    15.0448  15.0448  15.6782  15.6782  15.9854  16.2902  16.5079  16.5080

     the Fermi energy is    14.1800 ev

!    total energy              =    -702.39918642 Ry
     estimated scf accuracy    <          6.7E-09 Ry
     smearing contrib. (-TS)   =      -0.00376406 Ry
     internal energy E=F+TS    =    -702.39542236 Ry

     The total energy is F=E-TS. E is the sum of the following terms:
     one-electron contribution =    -134.70882392 Ry
     hartree contribution      =     115.27973597 Ry
     xc contribution           =    -147.25182818 Ry
     ewald contribution        =    -535.71450624 Ry

     convergence has been achieved in   7 iterations

     negative rho (up, down):  3.714E-01 0.000E+00

     Forces acting on atoms (cartesian axes, Ry/au):

     atom    1 type  1   force =    -0.00024351   -0.00042176    0.00000000
     atom    2 type  1   force =     0.00048701    0.00000000   -0.00000000
     atom    3 type  1   force =    -0.00024351    0.00042176    0.00000000
     atom    4 type  1   force =    -0.00019667   -0.00034064    0.00000000
     atom    5 type  1   force =     0.00039333   -0.00000000    0.00000000
     atom    6 type  1   force =    -0.00019667    0.00034064    0.00000000
     atom    7 type  2   force =     0.00000000   -0.00000000    0.00000000
     atom    8 type  3   force =     0.00000000    0.00000000    0.00000000
     atom    9 type  3   force =     0.00000000   -0.00000000   -0.00000000

     Total force =     0.001084     Total SCF correction =     0.000019
     Energy error            =      9.1E-06 Ry
     Gradient error          =      4.9E-04 Ry/Bohr

     bfgs converged in   4 scf cycles and   3 bfgs steps
     (criteria: energy <  1.0E-04 Ry, force <  1.0E-03 Ry/Bohr)

     End of BFGS Geometry Optimization

     Final energy             =    -702.3991864237 Ry

     File ./tmp/Zr6CoTe2.bfgs deleted, as requested
Begin final coordinates

ATOMIC_POSITIONS (angstrom)
Zr               0.9266585329        1.6050196471        0.0000000000
Zr               5.9250529342       -0.0000000000       -0.0000000000
Zr              -2.9625264671        5.1312463529       -0.0000000000
Zr               2.3130385919        4.0062994196        1.8167690000
Zr               3.1522938162       -0.0000000000        1.8167690000
Zr              -1.5761464081        2.7299665804        1.8167690000
Co               0.0000000000        0.0000000000        1.8167690000
Te               3.8891850000        2.2454220000       -0.0000000000
Te               0.0000000000        4.4908440000        0.0000000000
End final coordinates

     Writing all to output data dir ./tmp/Zr6CoTe2.save/ :
     XML data file, charge density, pseudopotentials, collected wavefunctions

     General routines

     Parallel routines

   This run was terminated on:  12: 4:38   2Aug2025

   JOB DONE.