     Program PWSCF v.7.4.1 starts on  2Aug2025 at 16: 0:54

     Waiting for input...
     Reading input from standard input
Warning: card &CELL ignored
Warning: card / ignored

     Current dimensions of program PWSCF are:
     Max number of different atomic species (ntypx) = 10
     Max number of k-points (npk) =  40000
     Max angular momentum in pseudopotentials (lmaxx) =  4
     file Co.pbe-nd-rrkjus.upf: wavefunction(s)  4S 3D renormalized

     R & G space division:  proc/nbgrp/npool/nimage =       2
     Subspace diagonalization in iterative solution of the eigenvalue problem:
     a serial algorithm will be used

     Using Slab Decomposition

     bravais-lattice index     =            4
     lattice parameter (alat)  =      14.6990  a.u.
     unit-cell volume          =    1284.7966 (a.u.)^3
     number of atoms/cell      =            1
     number of atomic types    =            1
     number of electrons       =         9.00
     number of Kohn-Sham states=            9
     kinetic-energy cutoff     =      60.0000  Ry
     charge density cutoff     =     360.0000  Ry
     scf convergence threshold =      1.0E-06
     mixing beta               =       0.4000
     number of iterations used =            8  plain     mixing
     energy convergence thresh.=      1.0E-04
     force convergence thresh. =      1.0E-03
     Exchange-correlation= SLA  PW   PBE  PBE
                           (   1   4   3   4   0   0   0)
     nstep                     =          100

     celldm(1)=  14.698989  celldm(2)=   0.000000  celldm(3)=   0.467134
     celldm(4)=   0.000000  celldm(5)=   0.000000  celldm(6)=   0.000000

     crystal axes: (cart. coord. in units of alat)
               a(1) = (   1.000000   0.000000   0.000000 )
               a(2) = (  -0.500000   0.866025   0.000000 )
               a(3) = (   0.000000   0.000000   0.467134 )

     reciprocal axes: (cart. coord. in units 2 pi/alat)
               b(1) = (  1.000000  0.577350 -0.000000 )
               b(2) = (  0.000000  1.154701  0.000000 )
               b(3) = (  0.000000 -0.000000  2.140714 )

     PseudoPot. # 1 for Co read from file:
     /home/tauqeer/Zr6MTe2/sudopoten/Co.pbe-nd-rrkjus.upf
     MD5 check sum: fa92598a13981d18d918d1aa5ec52a54
     Pseudo is Ultrasoft + core correction, Zval =  9.0
     Generated by new atomic code, or converted to UPF format
     Using radial grid of  961 points,  6 beta functions with:
                l(1) =   0
                l(2) =   0
                l(3) =   1
                l(4) =   1
                l(5) =   2
                l(6) =   2
     Q(r) pseudized with 0 coefficients

     atomic species   valence    mass     pseudopotential
     Co                9.00    58.93320     Co( 1.00)

     24 Sym. Ops., with inversion, found

   Cartesian axes

     site n.     atom                  positions (alat units)
         1        Co     tau(   1) = (   0.0000000   0.0000000   0.2335668  )

     number of k points=     9  Gaussian smearing, width (Ry)=  0.0100
                       cart. coord. in units 2pi/alat
        k(    1) = (   0.0000000   0.0000000   0.0000000), wk =   0.0555556
        k(    2) = (   0.0000000   0.0000000   0.5351785), wk =   0.1111111
        k(    3) = (   0.0000000   0.0000000  -1.0703570), wk =   0.0555556
        k(    4) = (   0.0000000   0.3849002   0.0000000), wk =   0.3333333
        k(    5) = (   0.0000000   0.3849002   0.5351785), wk =   0.6666667
        k(    6) = (   0.0000000   0.3849002  -1.0703570), wk =   0.3333333
        k(    7) = (   0.3333333   0.5773503   0.0000000), wk =   0.1111111
        k(    8) = (   0.3333333   0.5773503   0.5351785), wk =   0.2222222
        k(    9) = (   0.3333333   0.5773503  -1.0703570), wk =   0.1111111

     Check: negative core charge=   -0.000009

     Initial potential from superposition of free atoms

     starting charge       8.9995, renormalised to       9.0000
     Starting wfcs are    6 randomized atomic wfcs +    3 random wfcs

     Self-consistent Calculation

     iteration #  1     ecut=    60.00 Ry     beta= 0.40
     Davidson diagonalization with overlap
     ethr =  1.00E-02,  avg # of iterations =  7.3

     total energy              =     -73.92205655 Ry
     estimated scf accuracy    <       0.12810975 Ry

[...]

     total energy              =     -73.97895179 Ry
     estimated scf accuracy    <       0.00000132 Ry

     iteration # 24     ecut=    60.00 Ry     beta= 0.40
     Davidson diagonalization with overlap
     ethr =  1.47E-08,  avg # of iterations =  1.0

     End of self-consistent calculation

          k = 0.0000 0.0000 0.0000 ( 10025 PWs)   bands (ev):

    -4.4313  -3.6422  -3.6076  -3.6076  -3.4814  -3.4814  -0.0142  -0.0142
     0.6478

[...]

          k = 0.3333 0.5774-1.0704 ( 10014 PWs)   bands (ev):

    -3.7097  -3.7097  -3.5656  -3.5656  -3.5072  -1.7159  -0.6587   1.7135
     1.7135

     the Fermi energy is    -3.5009 ev

!    total energy              =     -73.97895179 Ry
     estimated scf accuracy    <       0.00000005 Ry
     smearing contrib. (-TS)   =      -0.01906008 Ry
     internal energy E=F+TS    =     -73.95989170 Ry

     The total energy is F=E-TS. E is the sum of the following terms:
     one-electron contribution =     -61.74527108 Ry
     hartree contribution      =      38.07949991 Ry
     xc contribution           =     -32.65058132 Ry
     ewald contribution        =     -17.64353920 Ry

     convergence has been achieved in  24 iterations

     Forces acting on atoms (cartesian axes, Ry/au):

     atom    1 type  1   force =     0.00000000    0.00000000    0.00000000

     Total force =     0.000000     Total SCF correction =     0.000000

     BFGS Geometry Optimization
     Energy error            =      0.0E+00 Ry
     Gradient error          =      0.0E+00 Ry/Bohr

     bfgs converged in   1 scf cycles and   0 bfgs steps
     (criteria: energy <  1.0E-04 Ry, force <  1.0E-03 Ry/Bohr)

     End of BFGS Geometry Optimization

     Final energy             =     -73.9789517858 Ry
Begin final coordinates

ATOMIC_POSITIONS (angstrom)
Co               0.0000000000        0.0000000000        1.8167690000
End final coordinates

     Writing all to output data dir ./tmp/Zr6CoTe2.save/ :
     XML data file, charge density, pseudopotentials, collected wavefunctions

     General routines

     Parallel routines

   This run was terminated on:  16: 1:58   2Aug2025

   JOB DONE.