     Program PWSCF v.7.4.1 starts on  2Aug2025 at 16:11:32

     Waiting for input...
     Reading input from standard input
Warning: card &CELL ignored
Warning: card / ignored

     Current dimensions of program PWSCF are:
     Max number of different atomic species (ntypx) = 10
     Max number of k-points (npk) =  40000
     Max angular momentum in pseudopotentials (lmaxx) =  4
     Message from routine setup:
     no reason to have ecutrho>4*ecutwfc

     R & G space division:  proc/nbgrp/npool/nimage =       2
     Subspace diagonalization in iterative solution of the eigenvalue problem:
     a serial algorithm will be used

     Using Slab Decomposition

     bravais-lattice index     =            4
     lattice parameter (alat)  =      14.6990  a.u.
     unit-cell volume          =    1284.7966 (a.u.)^3
     number of atoms/cell      =            2
     number of atomic types    =            1
     number of electrons       =        12.00
     number of Kohn-Sham states=           10
     kinetic-energy cutoff     =      60.0000  Ry
     charge density cutoff     =     360.0000  Ry
     scf convergence threshold =      1.0E-06
     mixing beta               =       0.4000
     number of iterations used =            8  plain     mixing
     energy convergence thresh.=      1.0E-04
     force convergence thresh. =      1.0E-03
     Exchange-correlation= SLA  PW   PBE  PBE
                           (   1   4   3   4   0   0   0)
     nstep                     =          100

     celldm(1)=  14.698989  celldm(2)=   0.000000  celldm(3)=   0.467134
     celldm(4)=   0.000000  celldm(5)=   0.000000  celldm(6)=   0.000000

     crystal axes: (cart. coord. in units of alat)
               a(1) = (   1.000000   0.000000   0.000000 )
               a(2) = (  -0.500000   0.866025   0.000000 )
               a(3) = (   0.000000   0.000000   0.467134 )

     reciprocal axes: (cart. coord. in units 2 pi/alat)
               b(1) = (  1.000000  0.577350 -0.000000 )
               b(2) = (  0.000000  1.154701  0.000000 )
               b(3) = (  0.000000 -0.000000  2.140714 )

     PseudoPot. # 1 for Te read from file:
     /home/tauqeer/Zr6MTe2/sudopoten/Te.pbe-rrkj.upf
     MD5 check sum: 22c11190d1be98e87836461ecdaaa002
     Pseudo is Norm-conserving, Zval =  6.0
     Generated by new atomic code, or converted to UPF format
     Using radial grid of 1191 points,  3 beta functions with:
                l(1) =   0
                l(2) =   0
                l(3) =   2

     atomic species   valence    mass     pseudopotential
     Te                6.00   127.60000     Te( 1.00)

     24 Sym. Ops., with inversion, found

   Cartesian axes

     site n.     atom                  positions (alat units)
         1        Te     tau(   1) = (   0.5000000   0.2886751   0.0000000  )
         2        Te     tau(   2) = (  -0.0000000   0.5773503   0.0000000  )

     number of k points=     9  Gaussian smearing, width (Ry)=  0.0100
                       cart. coord. in units 2pi/alat
        k(    1) = (   0.0000000   0.0000000   0.0000000), wk =   0.0555556
        k(    2) = (   0.0000000   0.0000000   0.5351785), wk =   0.1111111
        k(    3) = (   0.0000000   0.0000000  -1.0703570), wk =   0.0555556
        k(    4) = (   0.0000000   0.3849002   0.0000000), wk =   0.3333333
        k(    5) = (   0.0000000   0.3849002   0.5351785), wk =   0.6666667
        k(    6) = (   0.0000000   0.3849002  -1.0703570), wk =   0.3333333
        k(    7) = (   0.3333333   0.5773503   0.0000000), wk =   0.1111111
        k(    8) = (   0.3333333   0.5773503   0.5351785), wk =   0.2222222
        k(    9) = (   0.3333333   0.5773503  -1.0703570), wk =   0.1111111

     Initial potential from superposition of free atoms

     starting charge      11.5398, renormalised to      12.0000
     Starting wfcs are   18 randomized atomic wfcs

     Self-consistent Calculation

     iteration #  1     ecut=    60.00 Ry     beta= 0.40
     Davidson diagonalization with overlap
     ethr =  1.00E-02,  avg # of iterations =  2.6

     Threshold (ethr) on eigenvalues was too large:
     Diagonalizing with lowered threshold

     Davidson diagonalization with overlap
     ethr =  5.11E-04,  avg # of iterations =  1.4

     total energy              =     -32.44901656 Ry
     estimated scf accuracy    <       0.06051707 Ry

[...]

     total energy              =     -32.45141104 Ry
     estimated scf accuracy    <       0.00000119 Ry

     iteration #  8     ecut=    60.00 Ry     beta= 0.40
     Davidson diagonalization with overlap
     ethr =  9.91E-09,  avg # of iterations =  2.0

     End of self-consistent calculation

          k = 0.0000 0.0000 0.0000 ( 10025 PWs)   bands (ev):

   -12.0137 -11.7917  -3.1846  -3.1846  -2.2951  -2.2951   0.0118   0.1998
     2.4116   4.7245

[...]

          k = 0.3333 0.5774-1.0704 ( 10014 PWs)   bands (ev):

   -11.1428 -11.1428  -3.9176  -3.9176  -2.4250  -1.9215  -1.9215  -1.3461
     3.5654   4.5980

     the Fermi energy is    -2.0953 ev

!    total energy              =     -32.45141130 Ry
     estimated scf accuracy    <       0.00000040 Ry
     smearing contrib. (-TS)   =      -0.00568717 Ry
     internal energy E=F+TS    =     -32.44572413 Ry

     The total energy is F=E-TS. E is the sum of the following terms:
     one-electron contribution =     -12.30888352 Ry
     hartree contribution      =       8.01532853 Ry
     xc contribution           =      -6.73273175 Ry
     ewald contribution        =     -21.41943739 Ry

     convergence has been achieved in   8 iterations

     Forces acting on atoms (cartesian axes, Ry/au):

     atom    1 type  1   force =     0.00000000    0.00000000    0.00000000
     atom    2 type  1   force =     0.00000000    0.00000000    0.00000000

     Total force =     0.000000     Total SCF correction =     0.000000

     BFGS Geometry Optimization
     Energy error            =      0.0E+00 Ry
     Gradient error          =      0.0E+00 Ry/Bohr

     bfgs converged in   1 scf cycles and   0 bfgs steps
     (criteria: energy <  1.0E-04 Ry, force <  1.0E-03 Ry/Bohr)

     End of BFGS Geometry Optimization

     Final energy             =     -32.4514112967 Ry
Begin final coordinates

ATOMIC_POSITIONS (angstrom)
Te               3.8891850000        2.2454220000        0.0000000000
Te               0.0000000000        4.4908440000        0.0000000000
End final coordinates

     Writing all to output data dir ./tmp/Zr6CoTe2.save/ :
     XML data file, charge density, pseudopotentials, collected wavefunctions

     General routines

     Parallel routines

   This run was terminated on:  16:11:50   2Aug2025

   JOB DONE.