     Program PWSCF v.7.4.1 starts on  2Aug2025 at 13: 0:15

     Waiting for input...
     Reading input from standard input
Warning: card &CELL ignored
Warning: card / ignored

     Current dimensions of program PWSCF are:
     Max number of different atomic species (ntypx) = 10
     Max number of k-points (npk) =  40000
     Max angular momentum in pseudopotentials (lmaxx) =  4

     R & G space division:  proc/nbgrp/npool/nimage =       2
     Subspace diagonalization in iterative solution of the eigenvalue problem:
     a serial algorithm will be used

     Using Slab Decomposition

     bravais-lattice index     =            4
     lattice parameter (alat)  =      14.6990  a.u.
     unit-cell volume          =    1284.7966 (a.u.)^3
     number of atoms/cell      =            6
     number of atomic types    =            1
     number of electrons       =        72.00
     number of Kohn-Sham states=           43
     kinetic-energy cutoff     =      60.0000  Ry
     charge density cutoff     =     360.0000  Ry
     scf convergence threshold =      1.0E-06
     mixing beta               =       0.4000
     number of iterations used =            8  plain     mixing
     energy convergence thresh.=      1.0E-04
     force convergence thresh. =      1.0E-03
     Exchange-correlation= SLA  PW   PBE  PBE
                           (   1   4   3   4   0   0   0)
     nstep                     =          100

     celldm(1)=  14.698989  celldm(2)=   0.000000  celldm(3)=   0.467134
     celldm(4)=   0.000000  celldm(5)=   0.000000  celldm(6)=   0.000000

     crystal axes: (cart. coord. in units of alat)
               a(1) = (   1.000000   0.000000   0.000000 )
               a(2) = (  -0.500000   0.866025   0.000000 )
               a(3) = (   0.000000   0.000000   0.467134 )

     reciprocal axes: (cart. coord. in units 2 pi/alat)
               b(1) = (  1.000000  0.577350 -0.000000 )
               b(2) = (  0.000000  1.154701  0.000000 )
               b(3) = (  0.000000 -0.000000  2.140714 )

     PseudoPot. # 1 for Zr read from file:
     /home/tauqeer/Zr6MTe2/sudopoten/Zr.pbe-nsp-van.upf
     MD5 check sum: f06f7249673c13908de31cca45056a07
     Pseudo is Ultrasoft + core correction, Zval = 12.0
     Generated by new atomic code, or converted to UPF format
     Using radial grid of  887 points,  6 beta functions with:
                l(1) =   0
                l(2) =   0
                l(3) =   1
                l(4) =   1
                l(5) =   2
                l(6) =   2
     Q(r) pseudized with  6 coefficients,  rinner =    1.200   1.200   1.200
                                                       1.200   1.200

     atomic species   valence    mass     pseudopotential
     Zr               12.00    91.22400     Zr( 1.00)

     12 Sym. Ops. (no inversion) found

   Cartesian axes

     site n.     atom                  positions (alat units)
         1        Zr     tau(   1) = (   0.1186974   0.2055899   0.0000000  )
         2        Zr     tau(   2) = (   0.7626053   0.0000000   0.0000000  )
         3        Zr     tau(   3) = (  -0.3813026   0.6604355   0.0000000  )
         4        Zr     tau(   4) = (   0.2975946   0.5154489   0.2335668  )
         5        Zr     tau(   5) = (   0.4048109   0.0000000   0.2335668  )
         6        Zr     tau(   6) = (  -0.2024054   0.3505765   0.2335668  )

     number of k points=     9  Gaussian smearing, width (Ry)=  0.0100
                       cart. coord. in units 2pi/alat
        k(    1) = (   0.0000000   0.0000000   0.0000000), wk =   0.0555556
        k(    2) = (   0.0000000   0.0000000   0.5351785), wk =   0.1111111
        k(    3) = (   0.0000000   0.0000000  -1.0703570), wk =   0.0555556
        k(    4) = (   0.0000000   0.3849002   0.0000000), wk =   0.3333333
        k(    5) = (   0.0000000   0.3849002   0.5351785), wk =   0.6666667
        k(    6) = (   0.0000000   0.3849002  -1.0703570), wk =   0.3333333
        k(    7) = (   0.3333333   0.5773503   0.0000000), wk =   0.1111111
        k(    8) = (   0.3333333   0.5773503   0.5351785), wk =   0.2222222
        k(    9) = (   0.3333333   0.5773503  -1.0703570), wk =   0.1111111

     Initial potential from superposition of free atoms

     starting charge      71.9871, renormalised to      72.0000

     negative rho (up, down):  3.658E-01 0.000E+00
     Starting wfcs are   78 randomized atomic wfcs

     Self-consistent Calculation

     iteration #  1     ecut=    60.00 Ry     beta= 0.40
     Davidson diagonalization with overlap
     ethr =  1.00E-02,  avg # of iterations =  2.0

     Threshold (ethr) on eigenvalues was too large:
     Diagonalizing with lowered threshold

     Davidson diagonalization with overlap
     ethr =  8.87E-04,  avg # of iterations =  1.4

     negative rho (up, down):  3.674E-01 0.000E+00

     total energy              =    -594.32440149 Ry
     estimated scf accuracy    <       0.67306396 Ry

[...]

     End of self-consistent calculation

          k = 0.0000 0.0000 0.0000 ( 10025 PWs)   bands (ev):

   -39.8621 -39.8553 -39.8553 -39.3866 -39.3564 -39.3564 -17.9658 -17.8982
   -17.8982 -17.8462 -17.8280 -17.8280 -17.7881 -17.7545 -17.7545 -17.5090
   -17.4374 -17.4374 -17.2500 -17.2447 -17.2447 -17.2444 -17.2132 -17.2132
     4.7938   7.4778   7.4778   7.5188   7.6103   7.6103   8.4593   8.6748
     9.0554   9.0554   9.4093   9.9219   9.9219   9.9828  10.1066  10.1067
    10.3277  10.4927  10.4927

[...]

     the Fermi energy is     9.4924 ev

!    total energy              =    -594.58632223 Ry
     estimated scf accuracy    <       0.00000025 Ry
     smearing contrib. (-TS)   =      -0.00831086 Ry
     internal energy E=F+TS    =    -594.57801137 Ry

     The total energy is F=E-TS. E is the sum of the following terms:
     one-electron contribution =    -195.72972506 Ry
     hartree contribution      =     112.50411807 Ry
     xc contribution           =    -105.55843350 Ry
     ewald contribution        =    -405.79397089 Ry

     convergence has been achieved in  13 iterations

[...]

     Forces acting on atoms (cartesian axes, Ry/au):

     atom    1 type  1   force =    -0.00323364   -0.00560083    0.00000000
     atom    2 type  1   force =     0.00646729    0.00000000    0.00000000
     atom    3 type  1   force =    -0.00323364    0.00560083    0.00000000
     atom    4 type  1   force =    -0.00776010   -0.01344089    0.00000000
     atom    5 type  1   force =     0.01552021    0.00000000    0.00000000
     atom    6 type  1   force =    -0.00776010    0.01344089   -0.00000000

     Total force =     0.029122     Total SCF correction =     0.001135

     BFGS Geometry Optimization
     Energy error            =      8.5E-04 Ry
     Gradient error          =      1.6E-02 Ry/Bohr

     number of scf cycles    =   1
     number of bfgs steps    =   0

     energy             new  =    -594.5863222347 Ry

     new trust radius        =       0.0155202075 bohr
     new conv_thr            =       0.0000010000 Ry

ATOMIC_POSITIONS (angstrom)
Zr               0.9215608298        1.5961901662        0.0000000000
Zr               5.9352483405        0.0000000000        0.0000000000
Zr              -2.9676241702        5.1400758338        0.0000000000
Zr               2.3106945299        4.0022393852        1.8167690000
Zr               3.1569819401        0.0000000000        1.8167690000
Zr              -1.5784904701        2.7340266148        1.8167690000

     Writing config-only to output data dir ./tmp/Zr6CoTe2.save/ :
     XML data file
     NEW-OLD atomic charge density approx. for the potential

[...]

     Total force =     0.027170     Total SCF correction =     0.000456
     Energy error            =      8.2E-04 Ry
     Gradient error          =      1.4E-02 Ry/Bohr

[...]

     energy             old  =    -594.5863222347 Ry
     energy             new  =    -594.5871427004 Ry

     CASE: energy            _new < energy            _old

     WARNING: bfgs curvature condition failed, Theta= 0.857
     new trust radius        =       0.0170722283 bohr
     new conv_thr            =       0.0000000820 Ry

[...]

     iteration #  1     ecut=    60.00 Ry     beta= 0.40
     Davidson diagonalization with overlap
     c_bands:  1 eigenvalues not converged
     ethr =  1.00E-06,  avg # of iterations = 10.1

[...]

     number of scf cycles    =   7
     number of bfgs steps    =   6

     energy             old  =    -594.5916250054 Ry
     energy             new  =    -594.5918555585 Ry

     CASE: energy            _new < energy            _old

     new trust radius        =       0.0014555885 bohr
     new conv_thr            =       0.0000000106 Ry

ATOMIC_POSITIONS (angstrom)
Zr               0.9026971066        1.5635172393        0.0000000000
Zr               5.9729757867       -0.0000000000        0.0000000000
Zr              -2.9864878934        5.1727487607        0.0000000000
Zr               2.2637073187        3.9208551481        1.8167690000
Zr               3.2509563626        0.0000000000        1.8167690000
Zr              -1.6254776813        2.8154108519        1.8167690000

     Writing config-only to output data dir ./tmp/Zr6CoTe2.save/ :
     XML data file
     NEW-OLD atomic charge density approx. for the potential

[...]

     Self-consistent Calculation

[...]

     Threshold (ethr) on eigenvalues was too large:
     Diagonalizing with lowered threshold

     Davidson diagonalization with overlap
     ethr =  5.12E-09,  avg # of iterations =  4.6

[...]

     total energy              =    -594.59185899 Ry
     estimated scf accuracy    <       0.00000004 Ry

     iteration #  5     ecut=    60.00 Ry     beta= 0.40
     Davidson diagonalization with overlap
     ethr =  4.05E-11,  avg # of iterations =  2.7

[...]

     End of self-consistent calculation

[...]

          k = 0.3333 0.5774-1.0704 ( 10014 PWs)   bands (ev):

   -39.8833 -39.8833 -39.8819 -39.3911 -39.3457 -39.3457 -17.9751 -17.9751
   -17.9635 -17.9424 -17.9424 -17.9090 -17.8541 -17.7677 -17.7677 -17.6082
   -17.4471 -17.4471 -17.3607 -17.3607 -17.3459 -17.2552 -17.2060 -17.2060
     7.3711   7.6845   7.8327   7.8327   8.0095   8.0095   8.7767   8.8689
     9.0376   9.0376   9.0540   9.0540   9.5186   9.8917   9.8917  10.0057
    10.2234  10.2234  10.9029

     the Fermi energy is     9.4662 ev

!    total energy              =    -594.59185900 Ry
     estimated scf accuracy    <          1.2E-09 Ry
     smearing contrib. (-TS)   =      -0.00819842 Ry
     internal energy E=F+TS    =    -594.58366058 Ry

     The total energy is F=E-TS. E is the sum of the following terms:
     one-electron contribution =    -194.16349675 Ry
     hartree contribution      =     111.67657087 Ry
     xc contribution           =    -105.53570039 Ry
     ewald contribution        =    -406.56103431 Ry

     convergence has been achieved in   5 iterations

     negative rho (up, down):  3.738E-01 0.000E+00

     Forces acting on atoms (cartesian axes, Ry/au):

     atom    1 type  1   force =     0.00042356    0.00073362    0.00000000
     atom    2 type  1   force =    -0.00084711    0.00000000    0.00000000
     atom    3 type  1   force =     0.00042356   -0.00073362    0.00000000
     atom    4 type  1   force =    -0.00016432   -0.00028461    0.00000000
     atom    5 type  1   force =     0.00032865    0.00000000    0.00000000
     atom    6 type  1   force =    -0.00016432    0.00028461    0.00000000

     Total force =     0.001574     Total SCF correction =     0.000108
     Energy error            =      3.4E-06 Ry
     Gradient error          =      8.5E-04 Ry/Bohr

     bfgs converged in   8 scf cycles and   7 bfgs steps
     (criteria: energy <  1.0E-04 Ry, force <  1.0E-03 Ry/Bohr)

     End of BFGS Geometry Optimization

     Final energy             =    -594.5918589991 Ry

     File ./tmp/Zr6CoTe2.bfgs deleted, as requested
Begin final coordinates

ATOMIC_POSITIONS (angstrom)
Zr               0.9026971066        1.5635172393        0.0000000000
Zr               5.9729757867       -0.0000000000        0.0000000000
Zr              -2.9864878934        5.1727487607        0.0000000000
Zr               2.2637073187        3.9208551481        1.8167690000
Zr               3.2509563626        0.0000000000        1.8167690000
Zr              -1.6254776813        2.8154108519        1.8167690000
End final coordinates

     Writing all to output data dir ./tmp/Zr6CoTe2.save/ :
     XML data file, charge density, pseudopotentials, collected wavefunctions

     General routines

     Parallel routines

   This run was terminated on:  15:59:16   2Aug2025

   JOB DONE.