     Program PWSCF v.7.4.1 starts on  3Aug2025 at 14:56:28

     Waiting for input...
     Reading input from standard input
Warning: card &CELL ignored
Warning: card / ignored

     Current dimensions of program PWSCF are:
     Max number of different atomic species (ntypx) = 10
     Max number of k-points (npk) =  40000
     Max angular momentum in pseudopotentials (lmaxx) =  4
     file Ni.pbe-nd-rrkjus.upf: wavefunction(s)  4S renormalized

     R & G space division:  proc/nbgrp/npool/nimage =       2
     Subspace diagonalization in iterative solution of the eigenvalue problem:
     a serial algorithm will be used

     Using Slab Decomposition

     bravais-lattice index     =            4
     lattice parameter (alat)  =      14.6159  a.u.
     unit-cell volume          =    1304.9057 (a.u.)^3
     number of atoms/cell      =            9
     number of atomic types    =            3
     number of electrons       =        94.00
     number of Kohn-Sham states=           56
     kinetic-energy cutoff     =      60.0000  Ry
     charge density cutoff     =     360.0000  Ry
     scf convergence threshold =      1.0E-06
     mixing beta               =       0.4000
     number of iterations used =            8  plain     mixing
     Exchange-correlation= SLA  PW   PBE  PBE
                           (   1   4   3   4   0   0   0)

     celldm(1)=  14.615898  celldm(2)=   0.000000  celldm(3)=   0.482583
     celldm(4)=   0.000000  celldm(5)=   0.000000  celldm(6)=   0.000000

     crystal axes: (cart. coord. in units of alat)
               a(1) = (   1.000000   0.000000   0.000000 )
               a(2) = (  -0.500000   0.866025   0.000000 )
               a(3) = (   0.000000   0.000000   0.482583 )

     reciprocal axes: (cart. coord. in units 2 pi/alat)
               b(1) = (  1.000000  0.577350 -0.000000 )
               b(2) = (  0.000000  1.154701  0.000000 )
               b(3) = (  0.000000 -0.000000  2.072182 )

     PseudoPot. # 1 for Zr read from file:
     /home/tauqeer/Zr6MTe2/sudopoten/Zr.pbe-nsp-van.upf
     MD5 check sum: f06f7249673c13908de31cca45056a07
     Pseudo is Ultrasoft + core correction, Zval = 12.0
     Generated by new atomic code, or converted to UPF format
     Using radial grid of  887 points,  6 beta functions with:
                l(1) =   0
                l(2) =   0
                l(3) =   1
                l(4) =   1
                l(5) =   2
                l(6) =   2
     Q(r) pseudized with  6 coefficients,  rinner =    1.200   1.200   1.200
                                                       1.200   1.200

     PseudoPot. # 2 for Ni read from file:
     /home/tauqeer/Zr6MTe2/sudopoten/Ni.pbe-nd-rrkjus.upf
     MD5 check sum: d71bc9c4c8adef96ad6fe9664ede368e
     Pseudo is Ultrasoft + core correction, Zval = 10.0
     Generated by new atomic code, or converted to UPF format
     Using radial grid of 1203 points,  6 beta functions with:
                l(1) =   0
                l(2) =   0
                l(3) =   1
                l(4) =   1
                l(5) =   2
                l(6) =   2
     Q(r) pseudized with 0 coefficients

     PseudoPot. # 3 for Te read from file:
     /home/tauqeer/Zr6MTe2/sudopoten/Te.pbe-rrkj.upf
     MD5 check sum: 22c11190d1be98e87836461ecdaaa002
     Pseudo is Norm-conserving, Zval =  6.0
     Generated by new atomic code, or converted to UPF format
     Using radial grid of 1191 points,  3 beta functions with:
                l(1) =   0
                l(2) =   0
                l(3) =   2

     atomic species   valence    mass     pseudopotential
     Zr               12.00    91.22400     Zr( 1.00)
     Ni               10.00    58.69340     Ni( 1.00)
     Te                6.00   127.60000     Te( 1.00)

      2 Sym. Ops. (no inversion) found

   Cartesian axes

     site n.     atom                  positions (alat units)
         1        Zr     tau(   1) = (   0.2373720   0.0000000   0.0000000  )
         2        Zr     tau(   2) = (  -0.1186860   0.2055702   0.0000000  )
         3        Zr     tau(   3) = (   0.3800213   0.6582163   0.0000000  )
         4        Zr     tau(   4) = (   0.5908246   0.0000000   0.2399984  )
         5        Zr     tau(   5) = (  -0.2954123   0.5116692   0.2399984  )
         6        Zr     tau(   6) = (   0.2032950   0.3521173   0.2399984  )
         7        Ni     tau(   7) = (   0.0000000   0.0000000   0.2399984  )
         8        Te     tau(   8) = (  -0.0000000   0.5758576   0.0000000  )
         9        Te     tau(   9) = (   0.4987073   0.2879289   0.0000000  )

     number of k points=    89  Gaussian smearing, width (Ry)=  0.0100
                       cart. coord. in units 2pi/alat
        k(    1) = (   0.0000000   0.0000000   0.0000000), wk =   0.0069444
        k(    2) = (   0.0000000   0.0000000   0.2590228), wk =   0.0138889
        k(    3) = (   0.0000000   0.0000000   0.5180456), wk =   0.0138889
        k(    4) = (   0.0000000   0.0000000   0.7770684), wk =   0.0138889
        k(    5) = (   0.0000000   0.0000000  -1.0360912), wk =   0.0069444
        k(    6) = (   0.0000000   0.1924501   0.0000000), wk =   0.0277778
        k(    7) = (   0.0000000   0.1924501   0.2590228), wk =   0.0277778
        k(    8) = (   0.0000000   0.1924501   0.5180456), wk =   0.0277778
        k(    9) = (   0.0000000   0.1924501   0.7770684), wk =   0.0277778
        k(   10) = (   0.0000000   0.1924501  -1.0360912), wk =   0.0277778
        k(   11) = (   0.0000000   0.3849002   0.0000000), wk =   0.0277778
        k(   12) = (   0.0000000   0.3849002   0.2590228), wk =   0.0277778
        k(   13) = (   0.0000000   0.3849002   0.5180456), wk =   0.0277778
        k(   14) = (   0.0000000   0.3849002   0.7770684), wk =   0.0277778
        k(   15) = (   0.0000000   0.3849002  -1.0360912), wk =   0.0277778
        k(   16) = (   0.0000000  -0.5773503   0.0000000), wk =   0.0138889
        k(   17) = (   0.0000000  -0.5773503   0.2590228), wk =   0.0277778
        k(   18) = (   0.0000000  -0.5773503   0.5180456), wk =   0.0277778
        k(   19) = (   0.0000000  -0.5773503   0.7770684), wk =   0.0277778
        k(   20) = (   0.0000000  -0.5773503  -1.0360912), wk =   0.0138889
        k(   21) = (   0.1666667   0.2886751   0.0000000), wk =   0.0138889
        k(   22) = (   0.1666667   0.2886751   0.2590228), wk =   0.0138889
        k(   23) = (   0.1666667   0.2886751   0.5180456), wk =   0.0138889
        k(   24) = (   0.1666667   0.2886751   0.7770684), wk =   0.0138889
        k(   25) = (   0.1666667   0.2886751  -1.0360912), wk =   0.0138889
        k(   26) = (   0.1666667   0.4811252   0.0000000), wk =   0.0277778
        k(   27) = (   0.1666667   0.4811252   0.2590228), wk =   0.0277778
        k(   28) = (   0.1666667   0.4811252   0.5180456), wk =   0.0277778
        k(   29) = (   0.1666667   0.4811252   0.7770684), wk =   0.0277778
        k(   30) = (   0.1666667   0.4811252  -1.0360912), wk =   0.0277778
        k(   31) = (   0.3333333   0.5773503   0.0000000), wk =   0.0138889
        k(   32) = (   0.3333333   0.5773503   0.2590228), wk =   0.0138889
        k(   33) = (   0.3333333   0.5773503   0.5180456), wk =   0.0138889
        k(   34) = (   0.3333333   0.5773503   0.7770684), wk =   0.0138889
        k(   35) = (   0.3333333   0.5773503  -1.0360912), wk =   0.0138889
        k(   36) = (  -0.1666667   0.0962250   0.0000000), wk =   0.0138889
        k(   37) = (   0.0000000   0.1924501  -0.2590228), wk =   0.0277778
        k(   38) = (  -0.1666667   0.0962250   0.2590228), wk =   0.0277778
        k(   39) = (   0.0000000   0.1924501  -0.5180456), wk =   0.0277778
        k(   40) = (  -0.1666667   0.0962250   0.5180456), wk =   0.0277778
        k(   41) = (   0.0000000   0.1924501  -0.7770684), wk =   0.0277778
        k(   42) = (  -0.1666667   0.0962250   0.7770684), wk =   0.0277778
        k(   43) = (  -0.1666667   0.0962250  -1.0360912), wk =   0.0138889
        k(   44) = (  -0.3333333   0.1924501   0.0000000), wk =   0.0138889
        k(   45) = (   0.0000000   0.3849002  -0.2590228), wk =   0.0277778
        k(   46) = (  -0.3333333   0.1924501   0.2590228), wk =   0.0277778
        k(   47) = (   0.0000000   0.3849002  -0.5180456), wk =   0.0277778
        k(   48) = (  -0.3333333   0.1924501   0.5180456), wk =   0.0277778
        k(   49) = (   0.0000000   0.3849002  -0.7770684), wk =   0.0277778
        k(   50) = (  -0.3333333   0.1924501   0.7770684), wk =   0.0277778
        k(   51) = (  -0.3333333   0.1924501  -1.0360912), wk =   0.0138889
        k(   52) = (   0.5000000  -0.2886751   0.0000000), wk =   0.0069444
        k(   53) = (   0.5000000  -0.2886751   0.2590228), wk =   0.0138889
        k(   54) = (   0.5000000  -0.2886751   0.5180456), wk =   0.0138889
        k(   55) = (   0.5000000  -0.2886751   0.7770684), wk =   0.0138889
        k(   56) = (   0.5000000  -0.2886751  -1.0360912), wk =   0.0069444
        k(   57) = (  -0.1666667   0.2886751   0.0000000), wk =   0.0277778
        k(   58) = (  -0.1666667   0.2886751  -0.2590228), wk =   0.0277778
        k(   59) = (   0.1666667  -0.2886751  -0.2590228), wk =   0.0277778
        k(   60) = (   0.1666667   0.2886751  -0.2590228), wk =   0.0138889
[...]
        k(   75) = (  -0.1666667   0.4811252  -0.5180456), wk =   0.0277778
        k(   76) = (   0.1666667  -0.4811252  -0.5180456), wk =   0.0277778
        k(   77) = (  -0.3333333   0.3849002   0.5180456), wk =   0.0277778
        k(   78) = (   0.3333333  -0.3849002   0.5180456), wk =   0.0277778
        k(   79) = (   0.3333333   0.3849002  -0.5180456), wk =   0.0277778
        k(   80) = (  -0.1666667   0.4811252  -0.7770684), wk =   0.0277778
        k(   81) = (   0.1666667  -0.4811252  -0.7770684), wk =   0.0277778
        k(   82) = (  -0.3333333   0.3849002   0.7770684), wk =   0.0277778
        k(   83) = (   0.3333333  -0.3849002   0.7770684), wk =   0.0277778
        k(   84) = (   0.3333333   0.3849002  -0.7770684), wk =   0.0277778
        k(   85) = (  -0.1666667   0.4811252   1.0360912), wk =   0.0277778
        k(   86) = (  -0.3333333   0.3849002  -1.0360912), wk =   0.0277778
        k(   87) = (   0.3333333  -0.5773503  -0.2590228), wk =   0.0138889
        k(   88) = (   0.3333333  -0.5773503  -0.5180456), wk =   0.0138889
        k(   89) = (   0.3333333  -0.5773503  -0.7770684), wk =   0.0138889

     Check: negative core charge=   -0.000002

     Initial potential from superposition of free atoms

     starting charge      93.5264, renormalised to      94.0000

     negative rho (up, down):  3.649E-01 0.000E+00
     Starting wfcs are  102 randomized atomic wfcs

     Self-consistent Calculation

     iteration #  1     ecut=    60.00 Ry     beta= 0.40
     Davidson diagonalization with overlap
     ethr =  1.00E-02,  avg # of iterations =  2.0

     negative rho (up, down):  3.621E-01 0.000E+00

     total energy              =    -697.84155472 Ry
     estimated scf accuracy    <      27.57353287 Ry

[...]

     iteration # 13     ecut=    60.00 Ry     beta= 0.40
     Davidson diagonalization with overlap
     c_bands:  1 eigenvalues not converged
     c_bands:  1 eigenvalues not converged
     c_bands:  1 eigenvalues not converged
     ethr =  4.21E-08,  avg # of iterations =  8.8

[...]

     total energy              =    -713.87806689 Ry
     estimated scf accuracy    <       0.00003804 Ry

     iteration # 15     ecut=    60.00 Ry     beta= 0.40
     Davidson diagonalization with overlap
     ethr =  4.05E-08,  avg # of iterations =  2.0

     negative rho (up, down):  3.714E-01 0.000E+00

     End of self-consistent calculation

          k = 0.0000 0.0000 0.0000 ( 10193 PWs)   bands (ev):

   -35.2049 -35.1975 -35.1854 -34.8440 -34.8152 -34.8055 -13.5120 -13.3963
   -13.3904 -13.3013 -13.2471 -13.2177 -13.2143 -13.2028 -13.1950 -12.9835
   -12.9824 -12.9511 -12.8093 -12.7381 -12.7254 -12.7247 -12.7198 -12.7157
     0.6465   1.2973   7.9893   8.0031   9.1901   9.3136   9.3352  10.5594
    10.5913  11.3373  11.3456  11.3934  11.3956  11.4445  11.4486  11.6558
    11.8322  13.2903  13.2948  14.0418  14.0549  14.0726  14.1124  14.1176
    14.2105  14.7218  14.7434  15.0941  15.0969  15.1777  15.2713  15.7696

[...]

          k =-0.1667 0.0962 0.0000 ( 10213 PWs)   bands (ev):

[...]

          k =-0.3333 0.3849-1.0361 ( 10232 PWs)   bands (ev):

[...]

          k = 0.3333-0.5774-0.7771 ( 10233 PWs)   bands (ev):

   -35.1934 -35.1923 -35.1784 -34.8432 -34.8097 -34.7998 -13.4300 -13.4259
   -13.3889 -13.3874 -13.3741 -13.3663 -13.2094 -13.1375 -13.1331 -13.0915
   -12.9528 -12.9488 -12.8412 -12.7912 -12.7824 -12.7607 -12.7527 -12.7515
     1.4966   1.4971   8.1544   8.1569   8.5597   9.1588   9.1666   9.3462
    10.4772  11.3025  11.3143  11.4338  11.5039  11.5131  12.0303  12.6608
    12.6677  12.7979  12.8304  13.0235  13.0248  13.1783  13.1894  13.5721
    14.4989  14.4989  15.3369  15.3394  15.7103  15.7656  15.7673  15.9119

     the Fermi energy is    13.9235 ev

!    total energy              =    -713.87806946 Ry
     estimated scf accuracy    <       0.00000022 Ry
     smearing contrib. (-TS)   =      -0.00344054 Ry
     internal energy E=F+TS    =    -713.87462891 Ry

     The total energy is F=E-TS. E is the sum of the following terms:
     one-electron contribution =    -151.97535374 Ry
     hartree contribution      =     124.45110564 Ry
     xc contribution           =    -144.35143918 Ry
     ewald contribution        =    -541.99894164 Ry

     convergence has been achieved in  15 iterations

     Writing all to output data dir ./tmp/Zr6NiTe2.save/ :
     XML data file, charge density, pseudopotentials, collected wavefunctions

     General routines

     Parallel routines

   This run was terminated on:  16: 5: 1   3Aug2025

   JOB DONE.