     Program PWSCF v.7.4.1 starts on  3Aug2025 at 18:57:33

     Waiting for input...
     Reading input from standard input
Warning: card &CELL ignored
Warning: card / ignored

     Current dimensions of program PWSCF are:
     Max number of different atomic species (ntypx) = 10
     Max number of k-points (npk) =  40000
     Max angular momentum in pseudopotentials (lmaxx) =  4
     Message from routine input:
     WARNING: "startingwfc" set to atomic+random may spoil restart
     Message from routine input:
     WARNING: "startingpot" set to atomic may spoil restart
     file Ni.pbe-nd-rrkjus.upf: wavefunction(s)  4S renormalized

     R & G space division:  proc/nbgrp/npool/nimage =       2
     Subspace diagonalization in iterative solution of the eigenvalue problem:
     a serial algorithm will be used

     Using Slab Decomposition

     bravais-lattice index     =            4
     lattice parameter (alat)  =      14.6159  a.u.
     unit-cell volume          =    1304.9057 (a.u.)^3
     number of atoms/cell      =            9
     number of atomic types    =            3
     number of electrons       =        94.00
     number of Kohn-Sham states=           56
     kinetic-energy cutoff     =      60.0000  Ry
     charge density cutoff     =     360.0000  Ry
     scf convergence threshold =      1.0E-06
     mixing beta               =       0.4000
     number of iterations used =            8  plain     mixing
     Exchange-correlation= SLA  PW   PBE  PBE
                           (   1   4   3   4   0   0   0)

     celldm(1)=  14.615898  celldm(2)=   0.000000  celldm(3)=   0.482583
     celldm(4)=   0.000000  celldm(5)=   0.000000  celldm(6)=   0.000000

     crystal axes: (cart. coord. in units of alat)
               a(1) = (   1.000000   0.000000   0.000000 )
               a(2) = (  -0.500000   0.866025   0.000000 )
               a(3) = (   0.000000   0.000000   0.482583 )

     reciprocal axes: (cart. coord. in units 2 pi/alat)
               b(1) = (  1.000000  0.577350 -0.000000 )
               b(2) = (  0.000000  1.154701  0.000000 )
               b(3) = (  0.000000 -0.000000  2.072182 )

     PseudoPot. # 1 for Zr read from file:
     /home/tauqeer/Zr6MTe2/sudopoten/Zr.pbe-nsp-van.upf
     MD5 check sum: f06f7249673c13908de31cca45056a07
     Pseudo is Ultrasoft + core correction, Zval = 12.0
     Generated by new atomic code, or converted to UPF format
     Using radial grid of  887 points,  6 beta functions with:
                l(1) =   0
                l(2) =   0
                l(3) =   1
                l(4) =   1
                l(5) =   2
                l(6) =   2
     Q(r) pseudized with  6 coefficients,  rinner =    1.200   1.200   1.200
                                                       1.200   1.200

     PseudoPot. # 2 for Ni read from file:
     /home/tauqeer/Zr6MTe2/sudopoten/Ni.pbe-nd-rrkjus.upf
     MD5 check sum: d71bc9c4c8adef96ad6fe9664ede368e
     Pseudo is Ultrasoft + core correction, Zval = 10.0
     Generated by new atomic code, or converted to UPF format
     Using radial grid of 1203 points,  6 beta functions with:
                l(1) =   0
                l(2) =   0
                l(3) =   1
                l(4) =   1
                l(5) =   2
                l(6) =   2
     Q(r) pseudized with 0 coefficients

     PseudoPot. # 3 for Te read from file:
     /home/tauqeer/Zr6MTe2/sudopoten/Te.pbe-rrkj.upf
     MD5 check sum: 22c11190d1be98e87836461ecdaaa002
     Pseudo is Norm-conserving, Zval =  6.0
     Generated by new atomic code, or converted to UPF format
     Using radial grid of 1191 points,  3 beta functions with:
                l(1) =   0
                l(2) =   0
                l(3) =   2

     atomic species   valence    mass     pseudopotential
     Zr               12.00    91.22400     Zr( 1.00)
     Ni               10.00    58.69340     Ni( 1.00)
     Te                6.00   127.60000     Te( 1.00)

      2 Sym. Ops. (no inversion) found

                                    s                        frac. trans.

      isym =  1     identity

 cryst.   s( 1) = (     1          0          0      )
                  (     0          1          0      )
                  (     0          0          1      )

 cart.    s( 1) = (  1.0000000  0.0000000  0.0000000 )
                  (  0.0000000  1.0000000  0.0000000 )
                  (  0.0000000  0.0000000  1.0000000 )

      isym =  2     inv. 180 deg rotation - cryst. axis [1,-1,0]

 cryst.   s( 2) = (     0          1          0      )
                  (     1          0          0      )
                  (     0          0          1      )

 cart.    s( 2) = ( -0.5000000  0.8660254  0.0000000 )
                  (  0.8660254  0.5000000  0.0000000 )
                  (  0.0000000  0.0000000  1.0000000 )

     point group C_s (m)
     there are  2 classes
     the character table:

       E     s
A'     1.00  1.00
A''    1.00 -1.00

     the symmetry operations in each class and the name of the first element:

     E        1
          identity
     s        2
          inv. 180 deg rotation - cryst. axis [1,-1,0]

   Cartesian axes

     site n.     atom                  positions (alat units)
         1        Zr     tau(   1) = (   0.2373720   0.0000000   0.0000000  )
         2        Zr     tau(   2) = (  -0.1186860   0.2055702   0.0000000  )
         3        Zr     tau(   3) = (   0.3800213   0.6582163   0.0000000  )
         4        Zr     tau(   4) = (   0.5908246   0.0000000   0.2399984  )
         5        Zr     tau(   5) = (  -0.2954123   0.5116692   0.2399984  )
         6        Zr     tau(   6) = (   0.2032950   0.3521173   0.2399984  )
         7        Ni     tau(   7) = (   0.0000000   0.0000000   0.2399984  )
         8        Te     tau(   8) = (  -0.0000000   0.5758576   0.0000000  )
         9        Te     tau(   9) = (   0.4987073   0.2879289   0.0000000  )

   Crystallographic axes

     site n.     atom                  positions (cryst. coord.)
         1        Zr     tau(   1) = (  0.2373720  0.0000000  0.0000000  )
         2        Zr     tau(   2) = ( -0.0000000  0.2373720  0.0000000  )
         3        Zr     tau(   3) = (  0.7600427  0.7600427  0.0000000  )
         4        Zr     tau(   4) = (  0.5908246  0.0000000  0.4973206  )
         5        Zr     tau(   5) = (  0.0000000  0.5908247  0.4973206  )
         6        Zr     tau(   6) = (  0.4065900  0.4065900  0.4973206  )
         7        Ni     tau(   7) = (  0.0000000  0.0000000  0.4973206  )
         8        Te     tau(   8) = (  0.3324715  0.6649431  0.0000000  )
         9        Te     tau(   9) = (  0.6649431  0.3324716  0.0000000  )

     number of k points=   398  Gaussian smearing, width (Ry)=  0.0100
                       cart. coord. in units 2pi/alat
        k(    1) = (   0.0000000   0.0000000   0.0000000), wk =   0.0013889
        k(    2) = (   0.0000000   0.0000000   0.2072182), wk =   0.0027778
        k(    3) = (   0.0000000   0.0000000   0.4144365), wk =   0.0027778
        k(    4) = (   0.0000000   0.0000000   0.6216547), wk =   0.0027778
        k(    5) = (   0.0000000   0.0000000   0.8288730), wk =   0.0027778
        k(    6) = (   0.0000000   0.0000000  -1.0360912), wk =   0.0013889
        k(    7) = (   0.0000000   0.0962250   0.0000000), wk =   0.0055556
        k(    8) = (   0.0000000   0.0962250   0.2072182), wk =   0.0055556
        k(    9) = (   0.0000000   0.0962250   0.4144365), wk =   0.0055556
        k(   10) = (   0.0000000   0.0962250   0.6216547), wk =   0.0055556
        k(   11) = (   0.0000000   0.0962250   0.8288730), wk =   0.0055556
        k(   12) = (   0.0000000   0.0962250  -1.0360912), wk =   0.0055556
        k(   13) = (   0.0000000   0.1924501   0.0000000), wk =   0.0055556
        k(   14) = (   0.0000000   0.1924501   0.2072182), wk =   0.0055556
        k(   15) = (   0.0000000   0.1924501   0.4144365), wk =   0.0055556
        k(   16) = (   0.0000000   0.1924501   0.6216547), wk =   0.0055556
        k(   17) = (   0.0000000   0.1924501   0.8288730), wk =   0.0055556
        k(   18) = (   0.0000000   0.1924501  -1.0360912), wk =   0.0055556
        k(   19) = (   0.0000000   0.2886751   0.0000000), wk =   0.0055556
        k(   20) = (   0.0000000   0.2886751   0.2072182), wk =   0.0055556
        k(   21) = (   0.0000000   0.2886751   0.4144365), wk =   0.0055556
        k(   22) = (   0.0000000   0.2886751   0.6216547), wk =   0.0055556
        k(   23) = (   0.0000000   0.2886751   0.8288730), wk =   0.0055556
        k(   24) = (   0.0000000   0.2886751  -1.0360912), wk =   0.0055556
        k(   25) = (   0.0000000   0.3849002   0.0000000), wk =   0.0055556
        k(   26) = (   0.0000000   0.3849002   0.2072182), wk =   0.0055556
        k(   27) = (   0.0000000   0.3849002   0.4144365), wk =   0.0055556
        k(   28) = (   0.0000000   0.3849002   0.6216547), wk =   0.0055556
        k(   29) = (   0.0000000   0.3849002   0.8288730), wk =   0.0055556
        k(   30) = (   0.0000000   0.3849002  -1.0360912), wk =   0.0055556
        k(   31) = (   0.0000000   0.4811252   0.0000000), wk =   0.0055556
        k(   32) = (   0.0000000   0.4811252   0.2072182), wk =   0.0055556
        k(   33) = (   0.0000000   0.4811252   0.4144365), wk =   0.0055556
        k(   34) = (   0.0000000   0.4811252   0.6216547), wk =   0.0055556
        k(   35) = (   0.0000000   0.4811252   0.8288730), wk =   0.0055556
        k(   36) = (   0.0000000   0.4811252  -1.0360912), wk =   0.0055556
        k(   37) = (   0.0000000  -0.5773503   0.0000000), wk =   0.0027778
        k(   38) = (   0.0000000  -0.5773503   0.2072182), wk =   0.0055556
        k(   39) = (   0.0000000  -0.5773503   0.4144365), wk =   0.0055556
        k(   40) = (   0.0000000  -0.5773503   0.6216547), wk =   0.0055556
        k(   41) = (   0.0000000  -0.5773503   0.8288730), wk =   0.0055556
        k(   42) = (   0.0000000  -0.5773503  -1.0360912), wk =   0.0027778
        k(   43) = (   0.0833333   0.1443376   0.0000000), wk =   0.0027778
        k(   44) = (   0.0833333   0.1443376   0.2072182), wk =   0.0027778
        k(   45) = (   0.0833333   0.1443376   0.4144365), wk =   0.0027778
        k(   46) = (   0.0833333   0.1443376   0.6216547), wk =   0.0027778
        k(   47) = (   0.0833333   0.1443376   0.8288730), wk =   0.0027778
        k(   48) = (   0.0833333   0.1443376  -1.0360912), wk =   0.0027778
        k(   49) = (   0.0833333   0.2405626   0.0000000), wk =   0.0055556
        k(   50) = (   0.0833333   0.2405626   0.2072182), wk =   0.0055556
        k(   51) = (   0.0833333   0.2405626   0.4144365), wk =   0.0055556
        k(   52) = (   0.0833333   0.2405626   0.6216547), wk =   0.0055556
        k(   53) = (   0.0833333   0.2405626   0.8288730), wk =   0.0055556
        k(   54) = (   0.0833333   0.2405626  -1.0360912), wk =   0.0055556
        k(   55) = (   0.0833333   0.3367877   0.0000000), wk =   0.0055556
        k(   56) = (   0.0833333   0.3367877   0.2072182), wk =   0.0055556
        k(   57) = (   0.0833333   0.3367877   0.4144365), wk =   0.0055556
        k(   58) = (   0.0833333   0.3367877   0.6216547), wk =   0.0055556
        k(   59) = (   0.0833333   0.3367877   0.8288730), wk =   0.0055556
        k(   60) = (   0.0833333   0.3367877  -1.0360912), wk =   0.0055556
[...]
        k(  384) = (   0.2500000  -0.5292377  -0.6216547), wk =   0.0055556
        k(  385) = (  -0.3333333   0.4811252   0.6216547), wk =   0.0055556
        k(  386) = (   0.3333333  -0.4811252   0.6216547), wk =   0.0055556
        k(  387) = (   0.3333333   0.4811252  -0.6216547), wk =   0.0055556
        k(  388) = (  -0.2500000   0.5292377  -0.8288730), wk =   0.0055556
        k(  389) = (   0.2500000  -0.5292377  -0.8288730), wk =   0.0055556
        k(  390) = (  -0.3333333   0.4811252   0.8288730), wk =   0.0055556
        k(  391) = (   0.3333333  -0.4811252   0.8288730), wk =   0.0055556
        k(  392) = (   0.3333333   0.4811252  -0.8288730), wk =   0.0055556
        k(  393) = (  -0.2500000   0.5292377   1.0360912), wk =   0.0055556
        k(  394) = (  -0.3333333   0.4811252  -1.0360912), wk =   0.0055556
        k(  395) = (   0.3333333  -0.5773503  -0.2072182), wk =   0.0027778
        k(  396) = (   0.3333333  -0.5773503  -0.4144365), wk =   0.0027778
        k(  397) = (   0.3333333  -0.5773503  -0.6216547), wk =   0.0027778
        k(  398) = (   0.3333333  -0.5773503  -0.8288730), wk =   0.0027778

                       cryst. coord.
        k(    1) = (   0.0000000   0.0000000   0.0000000), wk =   0.0013889
        k(    2) = (   0.0000000   0.0000000   0.1000000), wk =   0.0027778
        k(    3) = (   0.0000000   0.0000000   0.2000000), wk =   0.0027778
        k(    4) = (   0.0000000   0.0000000   0.3000000), wk =   0.0027778
        k(    5) = (   0.0000000   0.0000000   0.4000000), wk =   0.0027778
        k(    6) = (   0.0000000   0.0000000  -0.5000000), wk =   0.0013889
        k(    7) = (   0.0000000   0.0833333   0.0000000), wk =   0.0055556
        k(    8) = (   0.0000000   0.0833333   0.1000000), wk =   0.0055556
        k(    9) = (   0.0000000   0.0833333   0.2000000), wk =   0.0055556
        k(   10) = (   0.0000000   0.0833333   0.3000000), wk =   0.0055556
        k(   11) = (   0.0000000   0.0833333   0.4000000), wk =   0.0055556
        k(   12) = (   0.0000000   0.0833333  -0.5000000), wk =   0.0055556
        k(   13) = (   0.0000000   0.1666667   0.0000000), wk =   0.0055556
        k(   14) = (   0.0000000   0.1666667   0.1000000), wk =   0.0055556
        k(   15) = (   0.0000000   0.1666667   0.2000000), wk =   0.0055556
        k(   16) = (   0.0000000   0.1666667   0.3000000), wk =   0.0055556
        k(   17) = (   0.0000000   0.1666667   0.4000000), wk =   0.0055556
        k(   18) = (   0.0000000   0.1666667  -0.5000000), wk =   0.0055556
        k(   19) = (   0.0000000   0.2500000   0.0000000), wk =   0.0055556
        k(   20) = (   0.0000000   0.2500000   0.1000000), wk =   0.0055556
        k(   21) = (   0.0000000   0.2500000   0.2000000), wk =   0.0055556
        k(   22) = (   0.0000000   0.2500000   0.3000000), wk =   0.0055556
        k(   23) = (   0.0000000   0.2500000   0.4000000), wk =   0.0055556
        k(   24) = (   0.0000000   0.2500000  -0.5000000), wk =   0.0055556
        k(   25) = (   0.0000000   0.3333333   0.0000000), wk =   0.0055556
        k(   26) = (   0.0000000   0.3333333   0.1000000), wk =   0.0055556
        k(   27) = (   0.0000000   0.3333333   0.2000000), wk =   0.0055556
        k(   28) = (   0.0000000   0.3333333   0.3000000), wk =   0.0055556
        k(   29) = (   0.0000000   0.3333333   0.4000000), wk =   0.0055556
        k(   30) = (   0.0000000   0.3333333  -0.5000000), wk =   0.0055556
        k(   31) = (   0.0000000   0.4166667   0.0000000), wk =   0.0055556
        k(   32) = (   0.0000000   0.4166667   0.1000000), wk =   0.0055556
        k(   33) = (   0.0000000   0.4166667   0.2000000), wk =   0.0055556
        k(   34) = (   0.0000000   0.4166667   0.3000000), wk =   0.0055556
        k(   35) = (   0.0000000   0.4166667   0.4000000), wk =   0.0055556
        k(   36) = (   0.0000000   0.4166667  -0.5000000), wk =   0.0055556
        k(   37) = (   0.0000000  -0.5000000   0.0000000), wk =   0.0027778
        k(   38) = (   0.0000000  -0.5000000   0.1000000), wk =   0.0055556
        k(   39) = (   0.0000000  -0.5000000   0.2000000), wk =   0.0055556
        k(   40) = (   0.0000000  -0.5000000   0.3000000), wk =   0.0055556
        k(   41) = (   0.0000000  -0.5000000   0.4000000), wk =   0.0055556
        k(   42) = (   0.0000000  -0.5000000  -0.5000000), wk =   0.0027778
        k(   43) = (   0.0833333   0.0833333   0.0000000), wk =   0.0027778
        k(   44) = (   0.0833333   0.0833333   0.1000000), wk =   0.0027778
        k(   45) = (   0.0833333   0.0833333   0.2000000), wk =   0.0027778
        k(   46) = (   0.0833333   0.0833333   0.3000000), wk =   0.0027778
        k(   47) = (   0.0833333   0.0833333   0.4000000), wk =   0.0027778
        k(   48) = (   0.0833333   0.0833333  -0.5000000), wk =   0.0027778
        k(   49) = (   0.0833333   0.1666667   0.0000000), wk =   0.0055556
        k(   50) = (   0.0833333   0.1666667   0.1000000), wk =   0.0055556
        k(   51) = (   0.0833333   0.1666667   0.2000000), wk =   0.0055556
        k(   52) = (   0.0833333   0.1666667   0.3000000), wk =   0.0055556
        k(   53) = (   0.0833333   0.1666667   0.4000000), wk =   0.0055556
        k(   54) = (   0.0833333   0.1666667  -0.5000000), wk =   0.0055556
        k(   55) = (   0.0833333   0.2500000   0.0000000), wk =   0.0055556
        k(   56) = (   0.0833333   0.2500000   0.1000000), wk =   0.0055556
        k(   57) = (   0.0833333   0.2500000   0.2000000), wk =   0.0055556
        k(   58) = (   0.0833333   0.2500000   0.3000000), wk =   0.0055556
        k(   59) = (   0.0833333   0.2500000   0.4000000), wk =   0.0055556
        k(   60) = (   0.0833333   0.2500000  -0.5000000), wk =   0.0055556
[...]
        k(  384) = (   0.2500000  -0.5833333  -0.3000000), wk =   0.0055556
        k(  385) = (  -0.3333333   0.5833333   0.3000000), wk =   0.0055556
        k(  386) = (   0.3333333  -0.5833333   0.3000000), wk =   0.0055556
        k(  387) = (   0.3333333   0.2500000  -0.3000000), wk =   0.0055556
        k(  388) = (  -0.2500000   0.5833333  -0.4000000), wk =   0.0055556
        k(  389) = (   0.2500000  -0.5833333  -0.4000000), wk =   0.0055556
        k(  390) = (  -0.3333333   0.5833333   0.4000000), wk =   0.0055556
        k(  391) = (   0.3333333  -0.5833333   0.4000000), wk =   0.0055556
        k(  392) = (   0.3333333   0.2500000  -0.4000000), wk =   0.0055556
        k(  393) = (  -0.2500000   0.5833333   0.5000000), wk =   0.0055556
        k(  394) = (  -0.3333333   0.5833333  -0.5000000), wk =   0.0055556
        k(  395) = (   0.3333333  -0.6666667  -0.1000000), wk =   0.0027778
        k(  396) = (   0.3333333  -0.6666667  -0.2000000), wk =   0.0027778
        k(  397) = (   0.3333333  -0.6666667  -0.3000000), wk =   0.0027778
        k(  398) = (   0.3333333  -0.6666667  -0.4000000), wk =   0.0027778

     Atomic positions and unit cell read from directory:
     ./tmp/Zr6NiTe2.save/

     Check: negative core charge=   -0.000002

     The initial density is read from file :
     ./tmp/Zr6NiTe2.save/charge-density

     negative rho (up, down):  3.714E-01 0.000E+00
     Starting wfcs are  102 randomized atomic wfcs

     Self-consistent Calculation

     iteration #  1     ecut=    60.00 Ry     beta= 0.40
     Davidson diagonalization with overlap

     c_bands:  1 eigenvalues not converged
     c_bands:  1 eigenvalues not converged
     c_bands:  1 eigenvalues not converged
     c_bands:  1 eigenvalues not converged
     c_bands:  1 eigenvalues not converged
     c_bands:  1 eigenvalues not converged
     c_bands:  1 eigenvalues not converged
     c_bands:  1 eigenvalues not converged
     c_bands:  1 eigenvalues not converged
     c_bands:  1 eigenvalues not converged
     c_bands:  1 eigenvalues not converged
     c_bands:  1 eigenvalues not converged
     c_bands:  1 eigenvalues not converged
     c_bands:  1 eigenvalues not converged
     c_bands:  1 eigenvalues not converged
     c_bands:  1 eigenvalues not converged
     c_bands:  1 eigenvalues not converged
     c_bands:  1 eigenvalues not converged
     c_bands:  1 eigenvalues not converged
     c_bands:  1 eigenvalues not converged
     c_bands:  1 eigenvalues not converged
     c_bands:  1 eigenvalues not converged
     c_bands:  1 eigenvalues not converged
     c_bands:  1 eigenvalues not converged
     c_bands:  1 eigenvalues not converged
     c_bands:  1 eigenvalues not converged
     c_bands:  1 eigenvalues not converged
     c_bands:  1 eigenvalues not converged
     c_bands:  1 eigenvalues not converged
     c_bands:  1 eigenvalues not converged
     c_bands:  1 eigenvalues not converged
     c_bands:  1 eigenvalues not converged
     c_bands:  1 eigenvalues not converged
     c_bands:  2 eigenvalues not converged
     c_bands:  1 eigenvalues not converged
     c_bands:  1 eigenvalues not converged
     c_bands:  1 eigenvalues not converged
     c_bands:  1 eigenvalues not converged
     c_bands:  1 eigenvalues not converged
     c_bands:  1 eigenvalues not converged
     c_bands:  1 eigenvalues not converged
     c_bands:  1 eigenvalues not converged
     c_bands:  1 eigenvalues not converged
     c_bands:  1 eigenvalues not converged
     c_bands:  1 eigenvalues not converged
     ethr =  1.00E-05,  avg # of iterations = 15.2

     Threshold (ethr) on eigenvalues was too large:
     Diagonalizing with lowered threshold

     Davidson diagonalization with overlap

     c_bands:  1 eigenvalues not converged
     c_bands:  1 eigenvalues not converged
     c_bands:  1 eigenvalues not converged
     c_bands:  1 eigenvalues not converged
     ethr =  6.52E-08,  avg # of iterations =  5.5

     negative rho (up, down):  3.714E-01 0.000E+00

     total energy              =    -713.87804405 Ry
     estimated scf accuracy    <       0.00006281 Ry

[...]

     ethr =  6.68E-08,  avg # of iterations =  4.8

[...]

     total energy              =    -713.87807645 Ry
     estimated scf accuracy    <       0.00000163 Ry

     iteration #  6     ecut=    60.00 Ry     beta= 0.40
     Davidson diagonalization with overlap

     ethr =  1.54E-09,  avg # of iterations =  2.3

     negative rho (up, down):  3.714E-01 0.000E+00

     End of self-consistent calculation

          k = 0.0000 0.0000 0.0000 ( 10193 PWs)   bands (ev):

   -35.2062 -35.1988 -35.1871 -34.8434 -34.8145 -34.8049 -13.5128 -13.3969
   -13.3915 -13.3013 -13.2482 -13.2189 -13.2156 -13.2040 -13.1965 -12.9831
   -12.9822 -12.9517 -12.8093 -12.7373 -12.7248 -12.7240 -12.7195 -12.7153
     0.6461   1.2970   7.9886   8.0023   9.1926   9.3130   9.3347  10.5590
    10.5979  11.3387  11.3471  11.4001  11.4022  11.4446  11.4486  11.6556
    11.8325  13.2904  13.2948  14.0441  14.0541  14.0719  14.1127  14.1178
    14.2121  14.7213  14.7432  15.0940  15.0966  15.1790  15.2706  15.7664

     occupation numbers
     1.0000   1.0000   1.0000   1.0000   1.0000   1.0000   1.0000   1.0000
     1.0000   1.0000   1.0000   1.0000   1.0000   1.0000   1.0000   1.0000
     1.0000   1.0000   1.0000   1.0000   1.0000   1.0000   1.0000   1.0000
     1.0000   1.0000   1.0000   1.0000   1.0000   1.0000   1.0000   1.0000
     1.0000   1.0000   1.0000   1.0000   1.0000   1.0000   1.0000   1.0000
     1.0000   1.0000   1.0000   0.1121   0.0935   0.0662   0.0269   0.0238
     0.0015   0.0000   0.0000   0.0000   0.0000   0.0000   0.0000   0.0000

[...]

          k =-0.0833 0.0481 0.0000 ( 10213 PWs)   bands (ev):

[...]

          k =-0.3333 0.4811-1.0361 ( 10238 PWs)   bands (ev):

[...]

          k = 0.3333-0.5774-0.8289 ( 10248 PWs)   bands (ev):

   -35.1942 -35.1931 -35.1796 -34.8423 -34.8089 -34.7989 -13.4289 -13.4255
   -13.3986 -13.3976 -13.3730 -13.3725 -13.2162 -13.1295 -13.1249 -13.0898
   -12.9606 -12.9568 -12.8424 -12.7954 -12.7865 -12.7590 -12.7519 -12.7512
     1.5326   1.5328   8.0585   8.0620   8.6386   9.1598   9.1674   9.3303
    10.5077  11.3176  11.3300  11.5005  11.5022  11.5117  11.9942  12.6973
    12.7061  12.7546  12.8435  12.9900  12.9930  13.1484  13.1609  13.4933
    14.5309  14.5318  15.3700  15.3715  15.7291  15.8571  15.8576  15.9608

     occupation numbers
     1.0000   1.0000   1.0000   1.0000   1.0000   1.0000   1.0000   1.0000
     1.0000   1.0000   1.0000   1.0000   1.0000   1.0000   1.0000   1.0000
     1.0000   1.0000   1.0000   1.0000   1.0000   1.0000   1.0000   1.0000
     1.0000   1.0000   1.0000   1.0000   1.0000   1.0000   1.0000   1.0000
     1.0000   1.0000   1.0000   1.0000   1.0000   1.0000   1.0000   1.0000
     1.0000   1.0000   1.0000   1.0000   1.0000   1.0000   1.0000   1.0000
     0.0000   0.0000   0.0000   0.0000   0.0000   0.0000   0.0000   0.0000

     the Fermi energy is    13.9272 ev

!    total energy              =    -713.87807652 Ry
     estimated scf accuracy    <       0.00000013 Ry
     smearing contrib. (-TS)   =      -0.00365152 Ry
     internal energy E=F+TS    =    -713.87442500 Ry

     The total energy is F=E-TS. E is the sum of the following terms:
     one-electron contribution =    -151.98302988 Ry
     hartree contribution      =     124.45961627 Ry
     xc contribution           =    -144.35206975 Ry
     ewald contribution        =    -541.99894164 Ry

     convergence has been achieved in   6 iterations

     Writing all to output data dir ./tmp/Zr6NiTe2.save/ :
     XML data file, charge density, pseudopotentials, collected wavefunctions

     General routines

     Parallel routines

   This run was terminated on:  22:15:20   3Aug2025

   JOB DONE.