     Program PWSCF v.7.4.1 starts on  2Aug2025 at 11:34:16

     Waiting for input...
     Reading input from standard input
Warning: card &CELL ignored
Warning: card / ignored

     Current dimensions of program PWSCF are:
     Max number of different atomic species (ntypx) = 10
     Max number of k-points (npk) =  40000
     Max angular momentum in pseudopotentials (lmaxx) =  4
     Message from routine setup:
     no reason to have ecutrho>4*ecutwfc

     R & G space division:  proc/nbgrp/npool/nimage =       2
     Subspace diagonalization in iterative solution of the eigenvalue problem:
     a serial algorithm will be used

     Using Slab Decomposition

     bravais-lattice index     =            4
     lattice parameter (alat)  =      14.6159  a.u.
     unit-cell volume          =    1304.9057 (a.u.)^3
     number of atoms/cell      =            2
     number of atomic types    =            1
     number of electrons       =        12.00
     number of Kohn-Sham states=           10
     kinetic-energy cutoff     =      60.0000  Ry
     charge density cutoff     =     360.0000  Ry
     scf convergence threshold =      1.0E-06
     mixing beta               =       0.4000
     number of iterations used =            8  plain     mixing
     energy convergence thresh.=      1.0E-04
     force convergence thresh. =      1.0E-03
     Exchange-correlation= SLA  PW   PBE  PBE
                           (   1   4   3   4   0   0   0)
     nstep                     =          100

     celldm(1)=  14.615898  celldm(2)=   1.000000  celldm(3)=   0.482583
     celldm(4)=   0.000000  celldm(5)=   0.000000  celldm(6)=   0.000000

     crystal axes: (cart. coord. in units of alat)
               a(1) = (   1.000000   0.000000   0.000000 )
               a(2) = (  -0.500000   0.866025   0.000000 )
               a(3) = (   0.000000   0.000000   0.482583 )

     reciprocal axes: (cart. coord. in units 2 pi/alat)
               b(1) = (  1.000000  0.577350 -0.000000 )
               b(2) = (  0.000000  1.154701  0.000000 )
               b(3) = (  0.000000 -0.000000  2.072182 )

     PseudoPot. # 1 for Te read from file:
     /home/tauqeer/Zr6MTe2/sudopoten/Te.pbe-rrkj.upf
     MD5 check sum: 22c11190d1be98e87836461ecdaaa002
     Pseudo is Norm-conserving, Zval =  6.0
     Generated by new atomic code, or converted to UPF format
     Using radial grid of 1191 points,  3 beta functions with:
                l(1) =   0
                l(2) =   0
                l(3) =   2

     atomic species   valence    mass     pseudopotential
     Te                6.00   127.60000     Te( 1.00)

      4 Sym. Ops. (no inversion) found

   Cartesian axes

     site n.     atom                  positions (alat units)
         1        Te     tau(   1) = (  -0.0000000   0.5758576   0.0000000  )
         2        Te     tau(   2) = (   0.4987073   0.2879289   0.0000000  )

     number of k points=    12  Gaussian smearing, width (Ry)=  0.0100
                       cart. coord. in units 2pi/alat
        k(    1) = (   0.0000000   0.0000000   0.0000000), wk =   0.0555556
        k(    2) = (   0.0000000   0.0000000   0.5180456), wk =   0.1111111
        k(    3) = (   0.0000000   0.0000000  -1.0360912), wk =   0.0555556
        k(    4) = (   0.0000000   0.3849002   0.0000000), wk =   0.2222222
        k(    5) = (   0.0000000   0.3849002   0.5180456), wk =   0.4444444
        k(    6) = (   0.0000000   0.3849002  -1.0360912), wk =   0.2222222
        k(    7) = (   0.3333333   0.5773503   0.0000000), wk =   0.1111111
        k(    8) = (   0.3333333   0.5773503   0.5180456), wk =   0.2222222
        k(    9) = (   0.3333333   0.5773503  -1.0360912), wk =   0.1111111
        k(   10) = (  -0.3333333   0.1924501   0.0000000), wk =   0.1111111
        k(   11) = (  -0.3333333   0.1924501   0.5180456), wk =   0.2222222
        k(   12) = (  -0.3333333   0.1924501  -1.0360912), wk =   0.1111111

     Initial potential from superposition of free atoms

     starting charge      11.5398, renormalised to      12.0000
     Starting wfcs are   18 randomized atomic wfcs

     Self-consistent Calculation

     iteration #  1     ecut=    60.00 Ry     beta= 0.40
     Davidson diagonalization with overlap
     ethr =  1.00E-02,  avg # of iterations =  2.3

     Threshold (ethr) on eigenvalues was too large:
     Diagonalizing with lowered threshold

     Davidson diagonalization with overlap
     ethr =  4.72E-04,  avg # of iterations =  1.4

     total energy              =     -32.44095653 Ry
     estimated scf accuracy    <       0.05536162 Ry

[...]

     total energy              =     -32.44338350 Ry
     estimated scf accuracy    <       0.00001853 Ry

     iteration #  7     ecut=    60.00 Ry     beta= 0.40
     Davidson diagonalization with overlap
     ethr =  1.54E-07,  avg # of iterations =  1.0

     End of self-consistent calculation

          k = 0.0000 0.0000 0.0000 ( 10193 PWs)   bands (ev):

   -12.0160 -11.7824  -3.2124  -3.1986  -2.2978  -2.2863  -0.3536  -0.1496
     2.3664   4.7119

[...]

          k = 0.3333 0.5774-1.0361 ( 10248 PWs)   bands (ev):

[...]

          k =-0.3333 0.1925 0.0000 ( 10227 PWs)   bands (ev):

[...]

          k =-0.3333 0.1925-1.0361 ( 10240 PWs)   bands (ev):

   -11.3348 -11.2130  -3.9063  -3.6948  -2.5022  -2.3370  -1.7527  -1.5382
     3.8297   3.9332

     the Fermi energy is    -2.1459 ev

!    total energy              =     -32.44338714 Ry
     estimated scf accuracy    <       0.00000024 Ry
     smearing contrib. (-TS)   =      -0.00535527 Ry
     internal energy E=F+TS    =     -32.43803187 Ry

     The total energy is F=E-TS. E is the sum of the following terms:
     one-electron contribution =     -12.08256373 Ry
     hartree contribution      =       7.87165064 Ry
     xc contribution           =      -6.71837828 Ry
     ewald contribution        =     -21.50874051 Ry

     convergence has been achieved in   7 iterations

     Forces acting on atoms (cartesian axes, Ry/au):

     atom    1 type  1   force =     0.00050007   -0.00028871    0.00000000
     atom    2 type  1   force =    -0.00050007    0.00028871    0.00000000

     Total force =     0.000817     Total SCF correction =     0.000018

     BFGS Geometry Optimization
     Energy error            =      6.7E-07 Ry
     Gradient error          =      5.0E-04 Ry/Bohr

     bfgs converged in   1 scf cycles and   0 bfgs steps
     (criteria: energy <  1.0E-04 Ry, force <  1.0E-03 Ry/Bohr)

     End of BFGS Geometry Optimization

     Final energy             =     -32.4433871398 Ry
Begin final coordinates

ATOMIC_POSITIONS (angstrom)
Te               0.0000000000        4.4539130000        0.0000000000
Te               3.8572020000        2.2269570000        0.0000000000
End final coordinates

     Writing all to output data dir ./tmp/Zr6NiTe2.save/ :
     XML data file, charge density, pseudopotentials, collected wavefunctions

     General routines

     Parallel routines

   This run was terminated on:  11:34:36   2Aug2025

   JOB DONE.