     Program PWSCF v.7.4.1 starts on  2Aug2025 at  9: 1: 3

     Waiting for input...
     Reading input from standard input
Warning: card &CELL ignored
Warning: card / ignored

     Current dimensions of program PWSCF are:
     Max number of different atomic species (ntypx) = 10
     Max number of k-points (npk) =  40000
     Max angular momentum in pseudopotentials (lmaxx) =  4
     file Ni.pbe-nd-rrkjus.upf: wavefunction(s)  4S renormalized

     R & G space division:  proc/nbgrp/npool/nimage =       2
     Subspace diagonalization in iterative solution of the eigenvalue problem:
     a serial algorithm will be used

     Using Slab Decomposition

     bravais-lattice index     =            4
     lattice parameter (alat)  =      14.6159  a.u.
     unit-cell volume          =    1304.9057 (a.u.)^3
     number of atoms/cell      =            9
     number of atomic types    =            3
     number of electrons       =        94.00
     number of Kohn-Sham states=           56
     kinetic-energy cutoff     =      60.0000  Ry
     charge density cutoff     =     360.0000  Ry
     scf convergence threshold =      1.0E-06
     mixing beta               =       0.4000
     number of iterations used =            8  plain     mixing
     energy convergence thresh.=      1.0E-04
     force convergence thresh. =      1.0E-03
     Exchange-correlation= SLA  PW   PBE  PBE
                           (   1   4   3   4   0   0   0)
     nstep                     =          100

     celldm(1)=  14.615898  celldm(2)=   1.000000  celldm(3)=   0.482583
     celldm(4)=   0.000000  celldm(5)=   0.000000  celldm(6)=   0.000000

     crystal axes: (cart. coord. in units of alat)
               a(1) = (   1.000000   0.000000   0.000000 )
               a(2) = (  -0.500000   0.866025   0.000000 )
               a(3) = (   0.000000   0.000000   0.482583 )

     reciprocal axes: (cart. coord. in units 2 pi/alat)
               b(1) = (  1.000000  0.577350 -0.000000 )
               b(2) = (  0.000000  1.154701  0.000000 )
               b(3) = (  0.000000 -0.000000  2.072182 )

     PseudoPot. # 1 for Zr read from file:
     /home/tauqeer/Zr6MTe2/sudopoten/Zr.pbe-nsp-van.upf
     MD5 check sum: f06f7249673c13908de31cca45056a07
     Pseudo is Ultrasoft + core correction, Zval = 12.0
     Generated by new atomic code, or converted to UPF format
     Using radial grid of  887 points,  6 beta functions with:
                l(1) =   0
                l(2) =   0
                l(3) =   1
                l(4) =   1
                l(5) =   2
                l(6) =   2
     Q(r) pseudized with  6 coefficients,  rinner =    1.200   1.200   1.200
                                                       1.200   1.200

     PseudoPot. # 2 for Ni read from file:
     /home/tauqeer/Zr6MTe2/sudopoten/Ni.pbe-nd-rrkjus.upf
     MD5 check sum: d71bc9c4c8adef96ad6fe9664ede368e
     Pseudo is Ultrasoft + core correction, Zval = 10.0
     Generated by new atomic code, or converted to UPF format
     Using radial grid of 1203 points,  6 beta functions with:
                l(1) =   0
                l(2) =   0
                l(3) =   1
                l(4) =   1
                l(5) =   2
                l(6) =   2
     Q(r) pseudized with 0 coefficients

     PseudoPot. # 3 for Te read from file:
     /home/tauqeer/Zr6MTe2/sudopoten/Te.pbe-rrkj.upf
     MD5 check sum: 22c11190d1be98e87836461ecdaaa002
     Pseudo is Norm-conserving, Zval =  6.0
     Generated by new atomic code, or converted to UPF format
     Using radial grid of 1191 points,  3 beta functions with:
                l(1) =   0
                l(2) =   0
                l(3) =   2

     atomic species   valence    mass     pseudopotential
     Zr               12.00    91.22400     Zr( 1.00)
     Ni               10.00    58.69340     Ni( 1.00)
     Te                6.00   127.60000     Te( 1.00)

      2 Sym. Ops. (no inversion) found

   Cartesian axes

     site n.     atom                  positions (alat units)
         1        Zr     tau(   1) = (   0.2373720   0.0000000   0.0000000  )
         2        Zr     tau(   2) = (  -0.1186860   0.2055702   0.0000000  )
         3        Zr     tau(   3) = (   0.3800213   0.6582163   0.0000000  )
         4        Zr     tau(   4) = (   0.5908246   0.0000000   0.2399984  )
         5        Zr     tau(   5) = (  -0.2954123   0.5116692   0.2399984  )
         6        Zr     tau(   6) = (   0.2032950   0.3521173   0.2399984  )
         7        Ni     tau(   7) = (   0.0000000   0.0000000   0.2399984  )
         8        Te     tau(   8) = (  -0.0000000   0.5758576   0.0000000  )
         9        Te     tau(   9) = (   0.4987073   0.2879289   0.0000000  )

     number of k points=    14  Gaussian smearing, width (Ry)=  0.0100
                       cart. coord. in units 2pi/alat
        k(    1) = (   0.0000000   0.0000000   0.0000000), wk =   0.0555556
        k(    2) = (   0.0000000   0.0000000   0.5180456), wk =   0.1111111
        k(    3) = (   0.0000000   0.0000000  -1.0360912), wk =   0.0555556
        k(    4) = (   0.0000000   0.3849002   0.0000000), wk =   0.2222222
        k(    5) = (   0.0000000   0.3849002   0.5180456), wk =   0.2222222
        k(    6) = (   0.0000000   0.3849002  -1.0360912), wk =   0.2222222
        k(    7) = (   0.3333333   0.5773503   0.0000000), wk =   0.1111111
        k(    8) = (   0.3333333   0.5773503   0.5180456), wk =   0.1111111
        k(    9) = (   0.3333333   0.5773503  -1.0360912), wk =   0.1111111
        k(   10) = (  -0.3333333   0.1924501   0.0000000), wk =   0.1111111
        k(   11) = (   0.0000000   0.3849002  -0.5180456), wk =   0.2222222
        k(   12) = (  -0.3333333   0.1924501   0.5180456), wk =   0.2222222
        k(   13) = (  -0.3333333   0.1924501  -1.0360912), wk =   0.1111111
        k(   14) = (   0.3333333  -0.5773503  -0.5180456), wk =   0.1111111

     Check: negative core charge=   -0.000002

     Initial potential from superposition of free atoms

     starting charge      93.5264, renormalised to      94.0000

     negative rho (up, down):  3.649E-01 0.000E+00
     Starting wfcs are  102 randomized atomic wfcs

     Self-consistent Calculation

     iteration #  1     ecut=    60.00 Ry     beta= 0.40
     Davidson diagonalization with overlap
     ethr =  1.00E-02,  avg # of iterations =  2.0

     negative rho (up, down):  3.621E-01 0.000E+00

     total energy              =    -697.65269315 Ry
     estimated scf accuracy    <      27.86732844 Ry

[...]

     iteration #  7     ecut=    60.00 Ry     beta= 0.40
     Davidson diagonalization with overlap
     c_bands:  1 eigenvalues not converged
     ethr =  8.47E-05,  avg # of iterations = 12.1

[...]

     End of self-consistent calculation

          k = 0.0000 0.0000 0.0000 ( 10193 PWs)   bands (ev):

   -35.2217 -35.2147 -35.2038 -34.8221 -34.7928 -34.7831 -13.5234 -13.4088
   -13.4035 -13.2913 -13.2570 -13.2320 -13.2290 -13.2141 -13.2077 -12.9652
   -12.9648 -12.9494 -12.7974 -12.7238 -12.7124 -12.7105 -12.7007 -12.6947
     0.6465   1.2972   7.9917   8.0059   9.2050   9.3138   9.3356  10.5554
    10.6315  11.3418  11.3504  11.4274  11.4303  11.4442  11.4489  11.6551
    11.8354  13.2872  13.2919  14.0493  14.0597  14.0679  14.1093  14.1143
    14.2272  14.7172  14.7394  15.0984  15.1015  15.1885  15.2573  15.7634

[...]

          k =-0.3333 0.1925 0.0000 ( 10227 PWs)   bands (ev):

[...]

     the Fermi energy is    13.9816 ev

!    total energy              =    -713.88209904 Ry
     estimated scf accuracy    <       0.00000055 Ry
     smearing contrib. (-TS)   =      -0.00307614 Ry
     internal energy E=F+TS    =    -713.87902290 Ry

     The total energy is F=E-TS. E is the sum of the following terms:
     one-electron contribution =    -152.00810472 Ry
     hartree contribution      =     124.48038602 Ry
     xc contribution           =    -144.35236256 Ry
     ewald contribution        =    -541.99894164 Ry

     convergence has been achieved in  17 iterations

[...]

     Forces acting on atoms (cartesian axes, Ry/au):

     atom    1 type  1   force =    -0.00252903   -0.00405633   -0.00202327
     atom    2 type  1   force =    -0.00224837   -0.00421837   -0.00202327
     atom    3 type  1   force =     0.00424912    0.00735969   -0.00195391
     atom    4 type  1   force =     0.00369682   -0.00189097    0.00264988
     atom    5 type  1   force =    -0.00348604    0.00225605    0.00264988
     atom    6 type  1   force =    -0.00056606   -0.00098044    0.00271874
     atom    7 type  2   force =    -0.00162779   -0.00281942    0.00300897
     atom    8 type  3   force =    -0.00138607    0.00370011   -0.00251351
     atom    9 type  3   force =     0.00389743    0.00064968   -0.00251351

     Total force =     0.015832     Total SCF correction =     0.002015
     SCF correction compared to forces is large: reduce conv_thr to get better values

     BFGS Geometry Optimization
     Energy error            =      2.5E-04 Ry
     Gradient error          =      7.4E-03 Ry/Bohr

     number of scf cycles    =   1
     number of bfgs steps    =   0

     energy             new  =    -713.8820990378 Ry

     new trust radius        =       0.0087199707 bohr
     new conv_thr            =       0.0000010000 Ry

ATOMIC_POSITIONS (angstrom)
Zr               1.8345916944       -0.0021465182       -0.0010706659
Zr              -0.9191547865        1.5877297343       -0.0010706659
Zr               2.9414855384        5.0948025828       -0.0010339621
Zr               4.5716302729       -0.0010006582        1.8576462551
Zr              -2.2866817318        3.9586478529        1.8576462551
Zr               1.5720654541        2.7228971713        1.8576826932
Ni              -0.0008613920       -0.0014919747        1.8578362790
Te              -0.0007334783        4.4558710138       -0.0013300942
Te               3.8592644288        2.2273007961       -0.0013300942

     Writing config-only to output data dir ./tmp/Zr6NiTe2.save/ :
     XML data file
     NEW-OLD atomic charge density approx. for the potential

[...]

     Total force =     0.011770     Total SCF correction =     0.002420
     SCF correction compared to forces is large: reduce conv_thr to get better values
     Energy error            =      2.2E-04 Ry
     Gradient error          =      5.4E-03 Ry/Bohr

[...]

     energy             old  =    -713.8820990378 Ry
     energy             new  =    -713.8823161778 Ry

     CASE: energy            _new < energy            _old

[...]

     Total force =     0.006673     Total SCF correction =     0.000069
     Energy error            =      1.6E-04 Ry
     Gradient error          =      2.6E-03 Ry/Bohr

[...]

     Threshold (ethr) on eigenvalues was too large:
     Diagonalizing with lowered threshold

     Davidson diagonalization with overlap
     ethr =  4.37E-09,  avg # of iterations =  4.1

[...]

     Total force =     0.002060     Total SCF correction =     0.000095
     Energy error            =      6.2E-06 Ry
     Gradient error          =      1.1E-03 Ry/Bohr

     number of scf cycles    =   5
     number of bfgs steps    =   4

     energy             old  =    -713.8825576163 Ry
     energy             new  =    -713.8825637770 Ry

     CASE: energy            _new < energy            _old

     new trust radius        =       0.0025502107 bohr
     new conv_thr            =       0.0000000100 Ry

ATOMIC_POSITIONS (angstrom)
Zr               1.8318866769       -0.0067234984       -0.0042837187
Zr              -0.9217660589        1.5830986303       -0.0042837187
Zr               2.9468867459        5.1041577485       -0.0042188658
Zr               4.5805810857       -0.0046401028        1.8617067285
Zr              -2.2943089898        3.9645797619        1.8617067285
Zr               1.5704796764        2.7201505238        1.8617481582
Ni              -0.0036016759       -0.0062382857        1.8626950278
Te              -0.0023165427        4.4601539383       -0.0050471698
Te               3.8637650824        2.2280712843       -0.0050471698

     Writing config-only to output data dir ./tmp/Zr6NiTe2.save/ :
     XML data file
     NEW-OLD atomic charge density approx. for the potential

     Check: negative core charge=   -0.000002

[...]

     Self-consistent Calculation

[...]

     Threshold (ethr) on eigenvalues was too large:
     Diagonalizing with lowered threshold

     Davidson diagonalization with overlap
     ethr =  2.94E-09,  avg # of iterations =  4.6

[...]

     total energy              =    -713.88256974 Ry
     estimated scf accuracy    <       0.00000002 Ry

     iteration #  7     ecut=    60.00 Ry     beta= 0.40
     Davidson diagonalization with overlap
     ethr =  1.92E-11,  avg # of iterations =  3.6

[...]

     End of self-consistent calculation

[...]

          k =-0.3333 0.1925-1.0361 ( 10240 PWs)   bands (ev):

[...]

          k = 0.3333-0.5774-0.5180 ( 10245 PWs)   bands (ev):

   -35.2116 -35.2108 -35.2093 -34.8152 -34.7776 -34.7760 -13.4493 -13.4493
   -13.4057 -13.3349 -13.3344 -13.3258 -13.1990 -13.1980 -13.1978 -13.0660
   -12.9000 -12.8988 -12.8082 -12.7423 -12.7397 -12.7395 -12.7237 -12.7226
     1.2734   1.2736   8.0673   8.5819   8.5828   9.4547   9.4548   9.4611
    10.2451  11.1413  11.2958  11.2965  11.4827  11.4833  12.2130  12.3369
    12.3395  12.9456  13.1628  13.2217  13.2222  13.3031  13.3037  13.9547
    14.4714  14.4768  15.0642  15.0654  15.6245  15.6372  15.7064  15.7104

     the Fermi energy is    13.9817 ev

!    total energy              =    -713.88256974 Ry
     estimated scf accuracy    <          9.1E-09 Ry
     smearing contrib. (-TS)   =      -0.00297625 Ry
     internal energy E=F+TS    =    -713.87959348 Ry

     The total energy is F=E-TS. E is the sum of the following terms:
     one-electron contribution =    -153.38310719 Ry
     hartree contribution      =     125.17593664 Ry
     xc contribution           =    -144.35524732 Ry
     ewald contribution        =    -541.31717562 Ry

     convergence has been achieved in   7 iterations

     negative rho (up, down):  3.712E-01 0.000E+00

     Forces acting on atoms (cartesian axes, Ry/au):

     atom    1 type  1   force =     0.00026422    0.00033870    0.00003482
     atom    2 type  1   force =     0.00016121    0.00039817    0.00003482
     atom    3 type  1   force =    -0.00034508   -0.00059770    0.00002370
     atom    4 type  1   force =     0.00079173   -0.00019034   -0.00006231
     atom    5 type  1   force =    -0.00056070    0.00059049   -0.00006231
     atom    6 type  1   force =    -0.00015163   -0.00026263   -0.00007369
     atom    7 type  2   force =     0.00010126    0.00017538   -0.00019376
     atom    8 type  3   force =    -0.00001599   -0.00029215    0.00014936
     atom    9 type  3   force =    -0.00024502   -0.00015992    0.00014936

     Total force =     0.001604     Total SCF correction =     0.000375
     SCF correction compared to forces is large: reduce conv_thr to get better values
     Energy error            =      6.0E-06 Ry
     Gradient error          =      7.9E-04 Ry/Bohr

     bfgs converged in   6 scf cycles and   5 bfgs steps
     (criteria: energy <  1.0E-04 Ry, force <  1.0E-03 Ry/Bohr)

     End of BFGS Geometry Optimization

     Final energy             =    -713.8825697376 Ry

     File ./tmp/Zr6NiTe2.bfgs deleted, as requested
Begin final coordinates

ATOMIC_POSITIONS (angstrom)
Zr               1.8318866769       -0.0067234984       -0.0042837187
Zr              -0.9217660589        1.5830986303       -0.0042837187
Zr               2.9468867459        5.1041577485       -0.0042188658
Zr               4.5805810857       -0.0046401028        1.8617067285
Zr              -2.2943089898        3.9645797619        1.8617067285
Zr               1.5704796764        2.7201505238        1.8617481582
Ni              -0.0036016759       -0.0062382857        1.8626950278
Te              -0.0023165427        4.4601539383       -0.0050471698
Te               3.8637650824        2.2280712843       -0.0050471698
End final coordinates

     Writing all to output data dir ./tmp/Zr6NiTe2.save/ :
     XML data file, charge density, pseudopotentials, collected wavefunctions

     General routines

     Parallel routines

   This run was terminated on:   9:42:19   2Aug2025

   JOB DONE.