     Program PWSCF v.7.4.1 starts on  2Aug2025 at 11: 8:36

     Waiting for input...
     Reading input from standard input
Warning: card &CELL ignored
Warning: card / ignored

     Current dimensions of program PWSCF are:
     Max number of different atomic species (ntypx) = 10
     Max number of k-points (npk) =  40000
     Max angular momentum in pseudopotentials (lmaxx) =  4
     file Ni.pbe-nd-rrkjus.upf: wavefunction(s)  4S renormalized

     R & G space division:  proc/nbgrp/npool/nimage =       2
     Subspace diagonalization in iterative solution of the eigenvalue problem:
     a serial algorithm will be used

     Using Slab Decomposition

     bravais-lattice index     =            4
     lattice parameter (alat)  =      14.6159  a.u.
     unit-cell volume          =    1304.9057 (a.u.)^3
     number of atoms/cell      =            1
     number of atomic types    =            1
     number of electrons       =        10.00
     number of Kohn-Sham states=            9
     kinetic-energy cutoff     =      60.0000  Ry
     charge density cutoff     =     360.0000  Ry
     scf convergence threshold =      1.0E-06
     mixing beta               =       0.4000
     number of iterations used =            8  plain     mixing
     energy convergence thresh.=      1.0E-04
     force convergence thresh. =      1.0E-03
     Exchange-correlation= SLA  PW   PBE  PBE
                           (   1   4   3   4   0   0   0)
     nstep                     =          100

     celldm(1)=  14.615898  celldm(2)=   1.000000  celldm(3)=   0.482583
     celldm(4)=   0.000000  celldm(5)=   0.000000  celldm(6)=   0.000000

     crystal axes: (cart. coord. in units of alat)
               a(1) = (   1.000000   0.000000   0.000000 )
               a(2) = (  -0.500000   0.866025   0.000000 )
               a(3) = (   0.000000   0.000000   0.482583 )

     reciprocal axes: (cart. coord. in units 2 pi/alat)
               b(1) = (  1.000000  0.577350 -0.000000 )
               b(2) = (  0.000000  1.154701  0.000000 )
               b(3) = (  0.000000 -0.000000  2.072182 )

     PseudoPot. # 1 for Ni read from file:
     /home/tauqeer/Zr6MTe2/sudopoten/Ni.pbe-nd-rrkjus.upf
     MD5 check sum: d71bc9c4c8adef96ad6fe9664ede368e
     Pseudo is Ultrasoft + core correction, Zval = 10.0
     Generated by new atomic code, or converted to UPF format
     Using radial grid of 1203 points,  6 beta functions with:
                l(1) =   0
                l(2) =   0
                l(3) =   1
                l(4) =   1
                l(5) =   2
                l(6) =   2
     Q(r) pseudized with 0 coefficients

     atomic species   valence    mass     pseudopotential
     Ni               10.00    58.69340     Ni( 1.00)

     12 Sym. Ops. (no inversion) found

   Cartesian axes

     site n.     atom                  positions (alat units)
         1        Ni     tau(   1) = (   0.0000000   0.0000000   0.2399984  )

     number of k points=     9  Gaussian smearing, width (Ry)=  0.0100
                       cart. coord. in units 2pi/alat
        k(    1) = (   0.0000000   0.0000000   0.0000000), wk =   0.0555556
        k(    2) = (   0.0000000   0.0000000   0.5180456), wk =   0.1111111
        k(    3) = (   0.0000000   0.0000000  -1.0360912), wk =   0.0555556
        k(    4) = (   0.0000000   0.3849002   0.0000000), wk =   0.3333333
        k(    5) = (   0.0000000   0.3849002   0.5180456), wk =   0.6666667
        k(    6) = (   0.0000000   0.3849002  -1.0360912), wk =   0.3333333
        k(    7) = (   0.3333333   0.5773503   0.0000000), wk =   0.1111111
        k(    8) = (   0.3333333   0.5773503   0.5180456), wk =   0.2222222
        k(    9) = (   0.3333333   0.5773503  -1.0360912), wk =   0.1111111

     Check: negative core charge=   -0.000003

     Initial potential from superposition of free atoms

     starting charge       9.9995, renormalised to      10.0000
     Starting wfcs are    6 randomized atomic wfcs +    3 random wfcs

     Self-consistent Calculation

     iteration #  1     ecut=    60.00 Ry     beta= 0.40
     Davidson diagonalization with overlap
     ethr =  1.00E-02,  avg # of iterations =  7.2

     Threshold (ethr) on eigenvalues was too large:
     Diagonalizing with lowered threshold

     Davidson diagonalization with overlap
     ethr =  9.14E-04,  avg # of iterations =  1.0

     total energy              =     -85.50753383 Ry
     estimated scf accuracy    <       0.09162235 Ry

[...]

     total energy              =     -85.55389744 Ry
     estimated scf accuracy    <       0.00020642 Ry

     iteration # 15     ecut=    60.00 Ry     beta= 0.40
     Davidson diagonalization with overlap
     ethr =  1.67E-07,  avg # of iterations =  1.0

     End of self-consistent calculation

          k = 0.0000 0.0000 0.0000 ( 10193 PWs)   bands (ev):

    -4.3797  -3.7213  -3.7015  -3.7015  -3.6166  -3.6166   0.1535   0.1535
     0.7800

[...]

          k = 0.3333 0.5774-1.0361 ( 10248 PWs)   bands (ev):

    -3.7809  -3.7809  -3.6724  -3.6724  -3.6367  -2.0604  -0.5592   1.6776
     1.6776

     the Fermi energy is    -3.5584 ev

!    total energy              =     -85.55390369 Ry
     estimated scf accuracy    <       0.00000007 Ry
     smearing contrib. (-TS)   =      -0.01353951 Ry
     internal energy E=F+TS    =     -85.54036417 Ry

     The total energy is F=E-TS. E is the sum of the following terms:
     one-electron contribution =     -83.48352776 Ry
     hartree contribution      =      50.04995619 Ry
     xc contribution           =     -29.97959845 Ry
     ewald contribution        =     -22.12719416 Ry

     convergence has been achieved in  15 iterations

     Forces acting on atoms (cartesian axes, Ry/au):

     atom    1 type  1   force =     0.00000000    0.00000000    0.00000000

     Total force =     0.000000     Total SCF correction =     0.000018

     BFGS Geometry Optimization
     Energy error            =      0.0E+00 Ry
     Gradient error          =      0.0E+00 Ry/Bohr

     bfgs converged in   1 scf cycles and   0 bfgs steps
     (criteria: energy <  1.0E-04 Ry, force <  1.0E-03 Ry/Bohr)

     End of BFGS Geometry Optimization

     Final energy             =     -85.5539036853 Ry
Begin final coordinates

ATOMIC_POSITIONS (angstrom)
Ni               0.0000000000        0.0000000000        1.8562440000
End final coordinates

     Writing all to output data dir ./tmp/Zr6NiTe2.save/ :
     XML data file, charge density, pseudopotentials, collected wavefunctions

     General routines

     Parallel routines

   This run was terminated on:  11: 9:31   2Aug2025

   JOB DONE.