     Program PWSCF v.7.4.1 starts on  2Aug2025 at  9:55:35

     Waiting for input...
     Reading input from standard input
Warning: card &CELL ignored
Warning: card / ignored

     Current dimensions of program PWSCF are:
     Max number of different atomic species (ntypx) = 10
     Max number of k-points (npk) =  40000
     Max angular momentum in pseudopotentials (lmaxx) =  4

     R & G space division:  proc/nbgrp/npool/nimage =       2
     Subspace diagonalization in iterative solution of the eigenvalue problem:
     a serial algorithm will be used

     Using Slab Decomposition

     bravais-lattice index     =            4
     lattice parameter (alat)  =      14.6159  a.u.
     unit-cell volume          =    1304.9057 (a.u.)^3
     number of atoms/cell      =            6
     number of atomic types    =            1
     number of electrons       =        72.00
     number of Kohn-Sham states=           43
     kinetic-energy cutoff     =      60.0000  Ry
     charge density cutoff     =     360.0000  Ry
     scf convergence threshold =      1.0E-06
     mixing beta               =       0.4000
     number of iterations used =            8  plain     mixing
     energy convergence thresh.=      1.0E-04
     force convergence thresh. =      1.0E-03
     Exchange-correlation= SLA  PW   PBE  PBE
                           (   1   4   3   4   0   0   0)
     nstep                     =          100

     celldm(1)=  14.615898  celldm(2)=   1.000000  celldm(3)=   0.482583
     celldm(4)=   0.000000  celldm(5)=   0.000000  celldm(6)=   0.000000

     crystal axes: (cart. coord. in units of alat)
               a(1) = (   1.000000   0.000000   0.000000 )
               a(2) = (  -0.500000   0.866025   0.000000 )
               a(3) = (   0.000000   0.000000   0.482583 )

     reciprocal axes: (cart. coord. in units 2 pi/alat)
               b(1) = (  1.000000  0.577350 -0.000000 )
               b(2) = (  0.000000  1.154701  0.000000 )
               b(3) = (  0.000000 -0.000000  2.072182 )

     PseudoPot. # 1 for Zr read from file:
     /home/tauqeer/Zr6MTe2/sudopoten/Zr.pbe-nsp-van.upf
     MD5 check sum: f06f7249673c13908de31cca45056a07
     Pseudo is Ultrasoft + core correction, Zval = 12.0
     Generated by new atomic code, or converted to UPF format
     Using radial grid of  887 points,  6 beta functions with:
                l(1) =   0
                l(2) =   0
                l(3) =   1
                l(4) =   1
                l(5) =   2
                l(6) =   2
     Q(r) pseudized with  6 coefficients,  rinner =    1.200   1.200   1.200
                                                       1.200   1.200

     atomic species   valence    mass     pseudopotential
     Zr               12.00    91.22400     Zr( 1.00)

      2 Sym. Ops. (no inversion) found

   Cartesian axes

     site n.     atom                  positions (alat units)
         1        Zr     tau(   1) = (   0.2373720   0.0000000   0.0000000  )
         2        Zr     tau(   2) = (  -0.1186860   0.2055702   0.0000000  )
         3        Zr     tau(   3) = (   0.3800213   0.6582163   0.0000000  )
         4        Zr     tau(   4) = (   0.5908246   0.0000000   0.2399984  )
         5        Zr     tau(   5) = (  -0.2954123   0.5116692   0.2399984  )
         6        Zr     tau(   6) = (   0.2032950   0.3521173   0.2399984  )

     number of k points=    14  Gaussian smearing, width (Ry)=  0.0100
                       cart. coord. in units 2pi/alat
        k(    1) = (   0.0000000   0.0000000   0.0000000), wk =   0.0555556
        k(    2) = (   0.0000000   0.0000000   0.5180456), wk =   0.1111111
        k(    3) = (   0.0000000   0.0000000  -1.0360912), wk =   0.0555556
        k(    4) = (   0.0000000   0.3849002   0.0000000), wk =   0.2222222
        k(    5) = (   0.0000000   0.3849002   0.5180456), wk =   0.2222222
        k(    6) = (   0.0000000   0.3849002  -1.0360912), wk =   0.2222222
        k(    7) = (   0.3333333   0.5773503   0.0000000), wk =   0.1111111
        k(    8) = (   0.3333333   0.5773503   0.5180456), wk =   0.1111111
        k(    9) = (   0.3333333   0.5773503  -1.0360912), wk =   0.1111111
        k(   10) = (  -0.3333333   0.1924501   0.0000000), wk =   0.1111111
        k(   11) = (   0.0000000   0.3849002  -0.5180456), wk =   0.2222222
        k(   12) = (  -0.3333333   0.1924501   0.5180456), wk =   0.2222222
        k(   13) = (  -0.3333333   0.1924501  -1.0360912), wk =   0.1111111
        k(   14) = (   0.3333333  -0.5773503  -0.5180456), wk =   0.1111111

     Initial potential from superposition of free atoms

     starting charge      71.9871, renormalised to      72.0000

     negative rho (up, down):  3.660E-01 0.000E+00
     Starting wfcs are   78 randomized atomic wfcs

     Self-consistent Calculation

     iteration #  1     ecut=    60.00 Ry     beta= 0.40
     Davidson diagonalization with overlap
     ethr =  1.00E-02,  avg # of iterations =  2.0

     Threshold (ethr) on eigenvalues was too large:
     Diagonalizing with lowered threshold

     Davidson diagonalization with overlap
     ethr =  8.69E-04,  avg # of iterations =  1.6

     negative rho (up, down):  3.675E-01 0.000E+00

     total energy              =    -594.30535566 Ry
     estimated scf accuracy    <       0.65869144 Ry

[...]

     End of self-consistent calculation

          k = 0.0000 0.0000 0.0000 ( 10193 PWs)   bands (ev):

   -40.0975 -40.0927 -40.0751 -39.6285 -39.5990 -39.5888 -18.1873 -18.1247
   -18.1128 -18.0668 -18.0446 -18.0399 -18.0358 -18.0096 -17.9964 -17.7434
   -17.6780 -17.6759 -17.5110 -17.4978 -17.4935 -17.4845 -17.4502 -17.4452
     4.6445   7.3686   7.3692   7.4040   7.4907   7.4942   8.2654   8.5112
     8.9156   8.9453   9.2379   9.5959   9.7326   9.7381   9.7677   9.7831
     9.9768  10.4487  10.4577

[...]

          k =-0.3333 0.1925 0.0000 ( 10227 PWs)   bands (ev):

[...]

     the Fermi energy is     9.3093 ev

!    total energy              =    -594.56348398 Ry
     estimated scf accuracy    <       0.00000040 Ry
     smearing contrib. (-TS)   =      -0.00920410 Ry
     internal energy E=F+TS    =    -594.55427988 Ry

     The total energy is F=E-TS. E is the sum of the following terms:
     one-electron contribution =    -196.99051453 Ry
     hartree contribution      =     112.52686947 Ry
     xc contribution           =    -105.48587628 Ry
     ewald contribution        =    -404.60475854 Ry

     convergence has been achieved in  12 iterations

[...]

     Forces acting on atoms (cartesian axes, Ry/au):

     atom    1 type  1   force =    -0.00574486   -0.00111298   -0.00100168
     atom    2 type  1   force =     0.00190856   -0.00553168   -0.00100168
     atom    3 type  1   force =     0.00310508    0.00537816   -0.00099996
     atom    4 type  1   force =    -0.00794171    0.00021796    0.00099032
     atom    5 type  1   force =     0.00415961   -0.00676875    0.00099032
     atom    6 type  1   force =     0.00451332    0.00781729    0.00102267

     Total force =     0.017910     Total SCF correction =     0.000687

     BFGS Geometry Optimization
     Energy error            =      3.2E-04 Ry
     Gradient error          =      7.9E-03 Ry/Bohr

     number of scf cycles    =   1
     number of bfgs steps    =   0

     energy             new  =    -594.5634839816 Ry

     new trust radius        =       0.0090843783 bohr
     new conv_thr            =       0.0000010000 Ry

ATOMIC_POSITIONS (angstrom)
Zr               1.8328899535       -0.0005889637       -0.0005300644
Zr              -0.9169550343        1.5870347607       -0.0005300644
Zr               2.9408801380        5.0937539985       -0.0005291561
Zr               4.5654714275        0.0001153376        1.8567680549
Zr              -2.2826358285        3.9538721342        1.8567680549
Zr               1.5747533437        2.7275527327        1.8567851749

     Writing config-only to output data dir ./tmp/Zr6NiTe2.save/ :
     XML data file
     NEW-OLD atomic charge density approx. for the potential

[...]

     Total force =     0.016639     Total SCF correction =     0.001808
     SCF correction compared to forces is large: reduce conv_thr to get better values
     Energy error            =      3.1E-04 Ry
     Gradient error          =      7.5E-03 Ry/Bohr

[...]

     energy             old  =    -594.5634839816 Ry
     energy             new  =    -594.5637925419 Ry

     CASE: energy            _new < energy            _old

     WARNING: bfgs curvature condition failed, Theta= 0.861
     new trust radius        =       0.0099928161 bohr
     new conv_thr            =       0.0000000309 Ry

[...]

     Total force =     0.015180     Total SCF correction =     0.000253
     Energy error            =      3.1E-04 Ry
     Gradient error          =      6.9E-03 Ry/Bohr

[...]

     iteration #  1     ecut=    60.00 Ry     beta= 0.40
     Davidson diagonalization with overlap
     c_bands:  1 eigenvalues not converged
     c_bands:  1 eigenvalues not converged
     ethr =  1.00E-06,  avg # of iterations =  8.6

[...]

     new trust radius        =       0.0014692980 bohr
     new conv_thr            =       0.0000000100 Ry

[...]

     Total force =     0.002039     Total SCF correction =     0.000129
     Energy error            =      5.1E-06 Ry
     Gradient error          =      1.1E-03 Ry/Bohr

     number of scf cycles    =   8
     number of bfgs steps    =   7

     energy             old  =    -594.5655448978 Ry
     energy             new  =    -594.5655499832 Ry

     CASE: energy            _new < energy            _old

     WARNING: bfgs curvature condition failed, Theta= 0.932
     new trust radius        =       0.0016162278 bohr
     new conv_thr            =       0.0000000100 Ry

ATOMIC_POSITIONS (angstrom)
Zr               1.8023943606       -0.0061743023       -0.0056028021
Zr              -0.9065442830        1.5578321332       -0.0056028021
Zr               2.9586235406        5.1244864734       -0.0056024021
Zr               4.5141416177        0.0002808141        1.8618086669
Zr              -2.2568276167        3.9095019533        1.8618086669
Zr               1.6026163807        2.7758129283        1.8619226725

     Writing config-only to output data dir ./tmp/Zr6NiTe2.save/ :
     XML data file
     NEW-OLD atomic charge density approx. for the potential

[...]

     Self-consistent Calculation

[...]

     Threshold (ethr) on eigenvalues was too large:
     Diagonalizing with lowered threshold

     Davidson diagonalization with overlap
     ethr =  9.38E-09,  avg # of iterations =  3.4

[...]

     total energy              =    -594.56555581 Ry
     estimated scf accuracy    <       0.00000003 Ry

     iteration #  8     ecut=    60.00 Ry     beta= 0.40
     Davidson diagonalization with overlap
     ethr =  4.35E-11,  avg # of iterations =  1.7

[...]

     End of self-consistent calculation

[...]

          k =-0.3333 0.1925-1.0361 ( 10240 PWs)   bands (ev):

[...]

          k = 0.3333-0.5774-0.5180 ( 10245 PWs)   bands (ev):

   -40.1157 -40.1148 -40.1110 -39.6195 -39.5768 -39.5711 -18.1737 -18.1716
   -18.1425 -18.1222 -18.1175 -18.1154 -18.0409 -18.0280 -18.0266 -17.8302
   -17.6418 -17.6398 -17.5401 -17.5207 -17.5166 -17.4744 -17.4416 -17.4388
     6.4251   6.6944   6.6960   7.9616   8.1594   8.1599   8.4733   8.7912
     8.7934   8.9107   8.9670   9.0627   9.0646   9.3900   9.3910  10.0565
    10.0577  10.2416  10.3012

     the Fermi energy is     9.2928 ev

!    total energy              =    -594.56555581 Ry
     estimated scf accuracy    <          6.9E-09 Ry
     smearing contrib. (-TS)   =      -0.00879712 Ry
     internal energy E=F+TS    =    -594.55675869 Ry

     The total energy is F=E-TS. E is the sum of the following terms:
     one-electron contribution =    -196.83778786 Ry
     hartree contribution      =     112.43270445 Ry
     xc contribution           =    -105.47915089 Ry
     ewald contribution        =    -404.67252439 Ry

     convergence has been achieved in   8 iterations

     negative rho (up, down):  3.742E-01 0.000E+00

     Forces acting on atoms (cartesian axes, Ry/au):

     atom    1 type  1   force =     0.00083263    0.00011345    0.00010538
     atom    2 type  1   force =    -0.00031806    0.00077780    0.00010538
     atom    3 type  1   force =    -0.00026642   -0.00046146    0.00010319
     atom    4 type  1   force =    -0.00052063   -0.00020432   -0.00010182
     atom    5 type  1   force =     0.00008337   -0.00055304   -0.00010182
     atom    6 type  1   force =     0.00018913    0.00032758   -0.00011031

     Total force =     0.001591     Total SCF correction =     0.000207
     SCF correction compared to forces is large: reduce conv_thr to get better values
     Energy error            =      5.8E-06 Ry
     Gradient error          =      8.3E-04 Ry/Bohr

     bfgs converged in   9 scf cycles and   8 bfgs steps
     (criteria: energy <  1.0E-04 Ry, force <  1.0E-03 Ry/Bohr)

     End of BFGS Geometry Optimization

     Final energy             =    -594.5655558068 Ry

     File ./tmp/Zr6NiTe2.bfgs deleted, as requested
Begin final coordinates

ATOMIC_POSITIONS (angstrom)
Zr               1.8023943606       -0.0061743023       -0.0056028021
Zr              -0.9065442830        1.5578321332       -0.0056028021
Zr               2.9586235406        5.1244864734       -0.0056024021
Zr               4.5141416177        0.0002808141        1.8618086669
Zr              -2.2568276167        3.9095019533        1.8618086669
Zr               1.6026163807        2.7758129283        1.8619226725
End final coordinates

     Writing all to output data dir ./tmp/Zr6NiTe2.save/ :
     XML data file, charge density, pseudopotentials, collected wavefunctions

     General routines

     Parallel routines

   This run was terminated on:  10:38:46   2Aug2025

   JOB DONE.