     Program PWSCF v.7.4.1 starts on  3Aug2025 at 12:36:37

     Waiting for input...
     Reading input from standard input
Warning: card &CELL ignored
Warning: card / ignored

     Current dimensions of program PWSCF are:
     Max number of different atomic species (ntypx) = 10
     Max number of k-points (npk) =  40000
     Max angular momentum in pseudopotentials (lmaxx) =  4
     file Co.pbe-nd-rrkjus.upf: wavefunction(s)  4S 3D renormalized

     R & G space division:  proc/nbgrp/npool/nimage =       2
     Subspace diagonalization in iterative solution of the eigenvalue problem:
     a serial algorithm will be used

     Using Slab Decomposition

     bravais-lattice index     =            4
     lattice parameter (alat)  =      14.6990  a.u.
     unit-cell volume          =    1284.7966 (a.u.)^3
     number of atoms/cell      =            9
     number of atomic types    =            3
     number of electrons       =        93.00
     number of Kohn-Sham states=           56
     kinetic-energy cutoff     =      60.0000  Ry
     charge density cutoff     =     360.0000  Ry
     scf convergence threshold =      1.0E-06
     mixing beta               =       0.4000
     number of iterations used =            8  plain     mixing
     Exchange-correlation= SLA  PW   PBE  PBE
                           (   1   4   3   4   0   0   0)

     celldm(1)=  14.698989  celldm(2)=   0.000000  celldm(3)=   0.467134
     celldm(4)=   0.000000  celldm(5)=   0.000000  celldm(6)=   0.000000

     crystal axes: (cart. coord. in units of alat)
               a(1) = (   1.000000   0.000000   0.000000 )
               a(2) = (  -0.500000   0.866025   0.000000 )
               a(3) = (   0.000000   0.000000   0.467134 )

     reciprocal axes: (cart. coord. in units 2 pi/alat)
               b(1) = (  1.000000  0.577350 -0.000000 )
               b(2) = (  0.000000  1.154701  0.000000 )
               b(3) = (  0.000000 -0.000000  2.140714 )

     PseudoPot. # 1 for Zr read from file:
     /home/tauqeer/Zr6MTe2/sudopoten/Zr.pbe-nsp-van.upf
     MD5 check sum: f06f7249673c13908de31cca45056a07
     Pseudo is Ultrasoft + core correction, Zval = 12.0
     Generated by new atomic code, or converted to UPF format
     Using radial grid of  887 points,  6 beta functions with:
                l(1) =   0
                l(2) =   0
                l(3) =   1
                l(4) =   1
                l(5) =   2
                l(6) =   2
     Q(r) pseudized with  6 coefficients,  rinner =    1.200   1.200   1.200
                                                       1.200   1.200

     PseudoPot. # 2 for Co read from file:
     /home/tauqeer/Zr6MTe2/sudopoten/Co.pbe-nd-rrkjus.upf
     MD5 check sum: fa92598a13981d18d918d1aa5ec52a54
     Pseudo is Ultrasoft + core correction, Zval =  9.0
     Generated by new atomic code, or converted to UPF format
     Using radial grid of  961 points,  6 beta functions with:
                l(1) =   0
                l(2) =   0
                l(3) =   1
                l(4) =   1
                l(5) =   2
                l(6) =   2
     Q(r) pseudized with 0 coefficients

     PseudoPot. # 3 for Te read from file:
     /home/tauqeer/Zr6MTe2/sudopoten/Te.pbe-rrkj.upf
     MD5 check sum: 22c11190d1be98e87836461ecdaaa002
     Pseudo is Norm-conserving, Zval =  6.0
     Generated by new atomic code, or converted to UPF format
     Using radial grid of 1191 points,  3 beta functions with:
                l(1) =   0
                l(2) =   0
                l(3) =   2

     atomic species   valence    mass     pseudopotential
     Zr               12.00    91.22400     Zr( 1.00)
     Co                9.00    58.93320     Co( 1.00)
     Te                6.00   127.60000     Te( 1.00)

     12 Sym. Ops. (no inversion) found

   Cartesian axes

     site n.     atom                  positions (alat units)
         1        Zr     tau(   1) = (   0.1186974   0.2055899   0.0000000  )
         2        Zr     tau(   2) = (   0.7626053   0.0000000   0.0000000  )
         3        Zr     tau(   3) = (  -0.3813026   0.6604355   0.0000000  )
         4        Zr     tau(   4) = (   0.2975946   0.5154489   0.2335668  )
         5        Zr     tau(   5) = (   0.4048109   0.0000000   0.2335668  )
         6        Zr     tau(   6) = (  -0.2024054   0.3505765   0.2335668  )
         7        Co     tau(   7) = (   0.0000000   0.0000000   0.2335668  )
         8        Te     tau(   8) = (   0.5000000   0.2886751   0.0000000  )
         9        Te     tau(   9) = (  -0.0000000   0.5773503   0.0000000  )

     number of k points=    35  Gaussian smearing, width (Ry)=  0.0100
                       cart. coord. in units 2pi/alat
        k(    1) = (   0.0000000   0.0000000   0.0000000), wk =   0.0069444
        k(    2) = (   0.0000000   0.0000000   0.2675893), wk =   0.0138889
        k(    3) = (   0.0000000   0.0000000   0.5351785), wk =   0.0138889
        k(    4) = (   0.0000000   0.0000000   0.8027678), wk =   0.0138889
        k(    5) = (   0.0000000   0.0000000  -1.0703570), wk =   0.0069444
        k(    6) = (   0.0000000   0.1924501   0.0000000), wk =   0.0416667
        k(    7) = (   0.0000000   0.1924501   0.2675893), wk =   0.0833333
        k(    8) = (   0.0000000   0.1924501   0.5351785), wk =   0.0833333
        k(    9) = (   0.0000000   0.1924501   0.8027678), wk =   0.0833333
        k(   10) = (   0.0000000   0.1924501  -1.0703570), wk =   0.0416667
        k(   11) = (   0.0000000   0.3849002   0.0000000), wk =   0.0416667
        k(   12) = (   0.0000000   0.3849002   0.2675893), wk =   0.0833333
        k(   13) = (   0.0000000   0.3849002   0.5351785), wk =   0.0833333
        k(   14) = (   0.0000000   0.3849002   0.8027678), wk =   0.0833333
        k(   15) = (   0.0000000   0.3849002  -1.0703570), wk =   0.0416667
        k(   16) = (   0.0000000  -0.5773503   0.0000000), wk =   0.0208333
        k(   17) = (   0.0000000  -0.5773503   0.2675893), wk =   0.0416667
        k(   18) = (   0.0000000  -0.5773503   0.5351785), wk =   0.0416667
        k(   19) = (   0.0000000  -0.5773503   0.8027678), wk =   0.0416667
        k(   20) = (   0.0000000  -0.5773503  -1.0703570), wk =   0.0208333
        k(   21) = (   0.1666667   0.2886751   0.0000000), wk =   0.0416667
        k(   22) = (   0.1666667   0.2886751   0.2675893), wk =   0.0833333
        k(   23) = (   0.1666667   0.2886751   0.5351785), wk =   0.0833333
        k(   24) = (   0.1666667   0.2886751   0.8027678), wk =   0.0833333
        k(   25) = (   0.1666667   0.2886751  -1.0703570), wk =   0.0416667
        k(   26) = (   0.1666667   0.4811252   0.0000000), wk =   0.0833333
        k(   27) = (   0.1666667   0.4811252   0.2675893), wk =   0.1666667
        k(   28) = (   0.1666667   0.4811252   0.5351785), wk =   0.1666667
        k(   29) = (   0.1666667   0.4811252   0.8027678), wk =   0.1666667
        k(   30) = (   0.1666667   0.4811252  -1.0703570), wk =   0.0833333
        k(   31) = (   0.3333333   0.5773503   0.0000000), wk =   0.0138889
        k(   32) = (   0.3333333   0.5773503   0.2675893), wk =   0.0277778
        k(   33) = (   0.3333333   0.5773503   0.5351785), wk =   0.0277778
        k(   34) = (   0.3333333   0.5773503   0.8027678), wk =   0.0277778
        k(   35) = (   0.3333333   0.5773503  -1.0703570), wk =   0.0138889

     Check: negative core charge=   -0.000007

     Initial potential from superposition of free atoms

     starting charge      92.5264, renormalised to      93.0000

     negative rho (up, down):  3.646E-01 0.000E+00
     Starting wfcs are  102 randomized atomic wfcs

     Self-consistent Calculation

     iteration #  1     ecut=    60.00 Ry     beta= 0.40
     Davidson diagonalization with overlap
     ethr =  1.00E-02,  avg # of iterations =  2.0

     negative rho (up, down):  3.622E-01 0.000E+00

     total energy              =    -690.58990118 Ry
     estimated scf accuracy    <      20.47594743 Ry

[...]

     iteration #  6     ecut=    60.00 Ry     beta= 0.40
     Davidson diagonalization with overlap
     c_bands:  1 eigenvalues not converged
     c_bands:  1 eigenvalues not converged
     c_bands:  2 eigenvalues not converged
     c_bands:  1 eigenvalues not converged
     ethr =  5.50E-05,  avg # of iterations = 14.8

[...]

     total energy              =    -702.39279659 Ry
     estimated scf accuracy    <       0.00000210 Ry

     iteration # 18     ecut=    60.00 Ry     beta= 0.40
     Davidson diagonalization with overlap
     ethr =  2.26E-09,  avg # of iterations =  4.7

     negative rho (up, down):  3.714E-01 0.000E+00

     End of self-consistent calculation

          k = 0.0000 0.0000 0.0000 ( 10025 PWs)   bands (ev):

   -34.9579 -34.9490 -34.9490 -34.5148 -34.4837 -34.4837 -13.2811 -13.1635
   -13.1635 -13.0339 -12.9786 -12.9786 -12.9738 -12.9330 -12.9330 -12.6820
   -12.6672 -12.6672 -12.4898 -12.4143 -12.4143 -12.3873 -12.3861 -12.3861
     0.8062   1.4547   8.1746   8.1746   9.4737   9.4737   9.5536  11.0302
    11.0784  11.6140  11.6140  11.9170  11.9170  12.0295  12.1911  12.1911
    12.1918  13.5667  13.5667  14.4856  14.4856  14.5547  14.6313  14.6313
    14.7488  15.0908  15.0908  15.2692  15.2692  15.4434  15.6478  15.8767

[...]

          k = 0.3333 0.5774-1.0704 ( 10014 PWs)   bands (ev):

   -34.9403 -34.9403 -34.9387 -34.5096 -34.4748 -34.4748 -13.1877 -13.1877
   -13.1797 -13.1797 -13.1412 -13.1310 -12.9802 -12.8656 -12.8656 -12.7854
   -12.6595 -12.6595 -12.5252 -12.4970 -12.4970 -12.4582 -12.4452 -12.4452
     1.8839   1.8839   7.9904   7.9904   9.0848   9.4203   9.4203   9.4866
    11.0022  12.0154  12.0154  12.0909  12.0909  12.1362  12.4713  12.8627
    13.0030  13.0030  13.1701  13.1701  13.3750  13.5336  13.5937  13.5937
    15.0426  15.0426  15.6825  15.6825  15.9957  16.2973  16.4991  16.4995

     the Fermi energy is    14.1491 ev

!    total energy              =    -702.39279691 Ry
     estimated scf accuracy    <       0.00000007 Ry
     smearing contrib. (-TS)   =      -0.00486040 Ry
     internal energy E=F+TS    =    -702.38793651 Ry

     The total energy is F=E-TS. E is the sum of the following terms:
     one-electron contribution =    -135.67146622 Ry
     hartree contribution      =     115.76852733 Ry
     xc contribution           =    -147.25288534 Ry
     ewald contribution        =    -535.23211228 Ry

     convergence has been achieved in  18 iterations

     Writing all to output data dir ./tmp/Zr6CoTe2.save/ :
     XML data file, charge density, pseudopotentials, collected wavefunctions

     General routines

     Parallel routines

   This run was terminated on:  13: 6: 3   3Aug2025

   JOB DONE.