     Program PWSCF v.7.4.1 starts on 17Aug2025 at 20:42: 5

     Waiting for input...
     Reading input from standard input

     Current dimensions of program PWSCF are:
     Max number of different atomic species (ntypx) = 10
     Max number of k-points (npk) =  40000
     Max angular momentum in pseudopotentials (lmaxx) =  4
     file Zr.pbe-mt_fhi.upf: wavefunction(s)  4f renormalized
     file Ni.pbe-mt_fhi.upf: wavefunction(s)  2p 4f renormalized
     file Te.pbe-mt_fhi.upf: wavefunction(s)  5d 4f renormalized
     Message from routine setup:
     no reason to have ecutrho>4*ecutwfc

     R & G space division:  proc/nbgrp/npool/nimage =       2
     Subspace diagonalization in iterative solution of the eigenvalue problem:
     a serial algorithm will be used

     Using Slab Decomposition

     bravais-lattice index     =            4
     lattice parameter (alat)  =      14.6159  a.u.
     unit-cell volume          =    1304.9057 (a.u.)^3
     number of atoms/cell      =            9
     number of atomic types    =            3
     number of electrons       =        46.00
     number of Kohn-Sham states=           28
     kinetic-energy cutoff     =      60.0000  Ry
     charge density cutoff     =     360.0000  Ry
     scf convergence threshold =      1.0E-06
     mixing beta               =       0.4000
     number of iterations used =            8  plain     mixing
     energy convergence thresh.=      1.0E-04
     force convergence thresh. =      1.0E-03
     press convergence thresh. =      5.0E-01
     Exchange-correlation= PBE
                           (   1   4   3   4   0   0   0)
     nstep                     =          100

     celldm(1)=  14.615898  celldm(2)=   0.000000  celldm(3)=   0.482583
     celldm(4)=   0.000000  celldm(5)=   0.000000  celldm(6)=   0.000000

     crystal axes: (cart. coord. in units of alat)
               a(1) = (   1.000000   0.000000   0.000000 )
               a(2) = (  -0.500000   0.866025   0.000000 )
               a(3) = (   0.000000   0.000000   0.482583 )

     reciprocal axes: (cart. coord. in units 2 pi/alat)
               b(1) = (  1.000000  0.577350 -0.000000 )
               b(2) = (  0.000000  1.154701  0.000000 )
               b(3) = (  0.000000 -0.000000  2.072182 )

     PseudoPot. # 1 for Zr read from file:
     /home/tauqeer/Zr6MTe2/sudopoten/Zr.pbe-mt_fhi.upf
     MD5 check sum: d7174933297848aa528ce1e54352b3ca
     Pseudo is Norm-conserving, Zval =  4.0
     Generated using FHI98PP, converted with fhi2upf.x v.5.0.2
     Using radial grid of  539 points,  3 beta functions with:
                l(1) =   0
                l(2) =   2
                l(3) =   3

     PseudoPot. # 2 for Ni read from file:
     /home/tauqeer/Zr6MTe2/sudopoten/Ni.pbe-mt_fhi.upf
     MD5 check sum: c94771b9de4a0d900f7ebca65c7a7b16
     Pseudo is Norm-conserving, Zval = 10.0
     Generated using FHI98PP, converted with fhi2upf.x v.5.0.2
     Using radial grid of  525 points,  3 beta functions with:
                l(1) =   1
                l(2) =   2
                l(3) =   3

     PseudoPot. # 3 for Te read from file:
     /home/tauqeer/Zr6MTe2/sudopoten/Te.pbe-mt_fhi.upf
     MD5 check sum: 85962a6ee3e6345fb8c79b5fb43653bb
     Pseudo is Norm-conserving, Zval =  6.0
     Generated using FHI98PP, converted with fhi2upf.x v.5.0.2
     Using radial grid of  549 points,  3 beta functions with:
                l(1) =   1
                l(2) =   2
                l(3) =   3

     atomic species   valence    mass     pseudopotential
     Zr                4.00    91.22400     Zr( 1.00)
     Ni               10.00    58.69340     Ni( 1.00)
     Te                6.00   127.60000     Te( 1.00)

      2 Sym. Ops. (no inversion) found

   Cartesian axes

     site n.     atom                  positions (alat units)
         1        Zr     tau(   1) = (   0.2373720   0.0000000   0.0000000  )
         2        Zr     tau(   2) = (  -0.1186860   0.2055702   0.0000000  )
         3        Zr     tau(   3) = (   0.3800213   0.6582163   0.0000000  )
         4        Zr     tau(   4) = (   0.5908246   0.0000000   0.2399984  )
         5        Zr     tau(   5) = (  -0.2954123   0.5116692   0.2399984  )
         6        Zr     tau(   6) = (   0.2032950   0.3521173   0.2399984  )
         7        Ni     tau(   7) = (   0.0000000   0.0000000   0.2399984  )
         8        Te     tau(   8) = (  -0.0000000   0.5758576   0.0000000  )
         9        Te     tau(   9) = (   0.4987073   0.2879289   0.0000000  )

     number of k points=    24  Gaussian smearing, width (Ry)=  0.0100
                       cart. coord. in units 2pi/alat
        k(    1) = (   0.0000000   0.0000000   0.0000000), wk =   0.0312500
        k(    2) = (   0.0000000   0.0000000   0.5180456), wk =   0.0625000
        k(    3) = (   0.0000000   0.0000000  -1.0360912), wk =   0.0312500
        k(    4) = (   0.0000000   0.2886751   0.0000000), wk =   0.1250000
        k(    5) = (   0.0000000   0.2886751   0.5180456), wk =   0.1250000
        k(    6) = (   0.0000000   0.2886751  -1.0360912), wk =   0.1250000
        k(    7) = (   0.0000000  -0.5773503   0.0000000), wk =   0.0625000
        k(    8) = (   0.0000000  -0.5773503   0.5180456), wk =   0.1250000
        k(    9) = (   0.0000000  -0.5773503  -1.0360912), wk =   0.0625000
        k(   10) = (   0.2500000   0.4330127   0.0000000), wk =   0.0625000
        k(   11) = (   0.2500000   0.4330127   0.5180456), wk =   0.0625000
        k(   12) = (   0.2500000   0.4330127  -1.0360912), wk =   0.0625000
        k(   13) = (  -0.2500000   0.1443376   0.0000000), wk =   0.0625000
        k(   14) = (   0.0000000   0.2886751  -0.5180456), wk =   0.1250000
        k(   15) = (  -0.2500000   0.1443376   0.5180456), wk =   0.1250000
        k(   16) = (  -0.2500000   0.1443376  -1.0360912), wk =   0.0625000
        k(   17) = (   0.5000000  -0.2886751   0.0000000), wk =   0.0312500
        k(   18) = (   0.5000000  -0.2886751   0.5180456), wk =   0.0625000
        k(   19) = (   0.5000000  -0.2886751  -1.0360912), wk =   0.0312500
        k(   20) = (  -0.2500000   0.4330127   0.0000000), wk =   0.1250000
        k(   21) = (  -0.2500000   0.4330127  -0.5180456), wk =   0.1250000
        k(   22) = (   0.2500000  -0.4330127  -0.5180456), wk =   0.1250000
        k(   23) = (   0.2500000   0.4330127  -0.5180456), wk =   0.0625000
        k(   24) = (  -0.2500000   0.4330127   1.0360912), wk =   0.1250000

     Initial potential from superposition of free atoms

     starting charge      54.1551, renormalised to      46.0000

     negative rho (up, down):  2.475E-04 0.000E+00
     Starting wfcs are  144 randomized atomic wfcs

     Self-consistent Calculation

     iteration #  1     ecut=    60.00 Ry     beta= 0.40
     Davidson diagonalization with overlap
     ethr =  1.00E-02,  avg # of iterations =  3.9

     negative rho (up, down):  1.484E-04 0.000E+00

     total energy              =     -83.16638174 Ry
     estimated scf accuracy    <     181.09731905 Ry

[...]

     iteration # 21     ecut=    60.00 Ry     beta= 0.40
     Davidson diagonalization with overlap
     c_bands:  1 eigenvalues not converged
     ethr =  1.19E-04,  avg # of iterations =  5.9

[...]

     End of self-consistent calculation

          k = 0.0000 0.0000 0.0000 ( 10193 PWs)   bands (ev):

    -3.6838  -3.2019   3.6699   3.6820   4.8519   4.8729   4.9130   6.4097
     6.5780   7.2404   7.2438   7.2652   7.2657   7.3050   7.3180   7.3183
     7.6815   9.0501   9.0513   9.6788   9.6947   9.7634   9.8489   9.9688
     9.9743  10.4977  10.5210  10.8319

[...]

          k =-0.2500 0.1443 0.0000 ( 10223 PWs)   bands (ev):

[...]

     the Fermi energy is     9.6646 ev

!    total energy              =    -139.04954066 Ry
     estimated scf accuracy    <       0.00000064 Ry
     smearing contrib. (-TS)   =      -0.00278137 Ry
     internal energy E=F+TS    =    -139.04675930 Ry

     The total energy is F=E-TS. E is the sum of the following terms:
     one-electron contribution =     -11.23852893 Ry
     hartree contribution      =      37.18077881 Ry
     xc contribution           =     -32.61727720 Ry
     ewald contribution        =    -132.37173197 Ry

     convergence has been achieved in  39 iterations

     Forces acting on atoms (cartesian axes, Ry/au):

     atom    1 type  1   force =     0.02155528   -0.00416637   -0.00251437
     atom    2 type  1   force =    -0.01438582    0.01658423   -0.00251437
     atom    3 type  1   force =    -0.00758493   -0.01313748   -0.00242706
     atom    4 type  1   force =    -0.00372442   -0.00182047    0.00274605
     atom    5 type  1   force =     0.00028564   -0.00413567    0.00274605
     atom    6 type  1   force =     0.00339969    0.00588843    0.00281327
     atom    7 type  2   force =    -0.00200736   -0.00347685    0.00397388
     atom    8 type  3   force =    -0.00132647    0.00360862   -0.00241172
     atom    9 type  3   force =     0.00378839    0.00065556   -0.00241172

     Total force =     0.037274     Total SCF correction =     0.000587

     Computing stress (Cartesian axis) and pressure

          total   stress  (Ry/bohr**3)                   (kbar)     P=      -43.98
  -0.00032011  -0.00000079  -0.00000019          -47.09       -0.12       -0.03
  -0.00000079  -0.00032103  -0.00000032           -0.12      -47.23       -0.05
  -0.00000019  -0.00000032  -0.00025577           -0.03       -0.05      -37.63

     BFGS Geometry Optimization
     Energy error            =      1.1E-02 Ry
     Gradient error          =      2.2E-02 Ry/Bohr
     Cell gradient error     =      4.7E+01 kbar

     number of scf cycles    =   1
     number of bfgs steps    =   0

     enthalpy           new  =    -139.0495406643 Ry

     new trust radius        =       0.0579839138 bohr
     new conv_thr            =       0.0000010000 Ry

     new unit-cell volume =   1275.86294 a.u.^3 (   189.06338 Ang^3 )
     density =      7.56423 g/cm^3

CELL_PARAMETERS (alat= 14.61589774)
   0.991997143  -0.000019838  -0.000004643
  -0.496015752   0.859084807  -0.000004643
  -0.000002241  -0.000003881   0.479497215

ATOMIC_POSITIONS (angstrom)
Zr               1.8325526411       -0.0022236909       -0.0013305991
Zr              -0.9182020934        1.5859252761       -0.0013305991
Zr               2.9116322050        5.0430950911       -0.0013306430
Zr               4.5311398424       -0.0010611742        1.8457972343
Zr              -2.2664889250        3.9235518517        1.8457972343
Zr               1.5615035124        2.7046033521        1.8458245455
Ni              -0.0010623401       -0.0018400269        1.8464640414
Te              -0.0007847083        4.4200612413       -0.0013038965
Te               3.8282778696        2.2093515393       -0.0013038965

     Writing config-only to output data dir ./tmp/Zr6NiTe2.save/ :
     XML data file
     NEW-OLD atomic charge density approx. for the potential
     New effective cutoffs (rho, wfc):  365.85   60.97

[...]

     Energy error            =      6.8E-03 Ry
     Gradient error          =      1.8E-02 Ry/Bohr
     Cell gradient error     =      1.3E+01 kbar

[...]

     enthalpy           old  =    -139.0495406643 Ry
     enthalpy           new  =    -139.0563663506 Ry

     CASE: enthalpy          _new < enthalpy          _old

[...]

     Total force =     0.001739     Total SCF correction =     0.001845
     SCF correction compared to forces is large: reduce conv_thr to get better values

[...]

     number of scf cycles    =   5
     number of bfgs steps    =   4

     enthalpy           old  =    -139.0581617278 Ry
     enthalpy           new  =    -139.0582500423 Ry

     CASE: enthalpy          _new < enthalpy          _old

     new trust radius        =       0.0012269591 bohr
     new conv_thr            =       0.0000000100 Ry

     new unit-cell volume =   1265.23690 a.u.^3 (   187.48877 Ang^3 )
     density =      7.62775 g/cm^3

[...]

ATOMIC_POSITIONS (angstrom)
Zr               1.8537816679       -0.0066656678       -0.0042354871
Zr              -0.9326634716        1.6020891642       -0.0042354871
Zr               2.8900524088        5.0057177869       -0.0041905879
Zr               4.5088334147       -0.0046352705        1.8481591264
Zr              -2.2584309693        3.9024468697        1.8481591264
Zr               1.5609804573        2.7036973944        1.8481859058
Ni              -0.0025836183       -0.0044749581        1.8476906674
Te              -0.0024679053        4.4071991135       -0.0042801351
Te               3.8179805379        2.2014627822       -0.0042801351

     Writing config-only to output data dir ./tmp/Zr6NiTe2.save/ :
     XML data file
     NEW-OLD atomic charge density approx. for the potential
     New effective cutoffs (rho, wfc):  368.62   61.42

[...]

     Energy error            =      2.9E-06 Ry
     Gradient error          =      8.4E-04 Ry/Bohr
     Cell gradient error     =      1.3E-01 kbar

     bfgs converged in   6 scf cycles and   5 bfgs steps
     (criteria: energy <  1.0E-04 Ry, force <  1.0E-03 Ry/Bohr, cell <  5.0E-01 kbar)

     End of BFGS Geometry Optimization

     Final enthalpy           =    -139.0582529594 Ry

     File ./tmp/Zr6NiTe2.bfgs deleted, as requested
Begin final coordinates
     new unit-cell volume =   1265.23690 a.u.^3 (   187.48877 Ang^3 )
     density =      7.62775 g/cm^3

CELL_PARAMETERS (alat= 14.61589774)
   0.988303133  -0.000038231  -0.000000732
  -0.494184675   0.855876504  -0.000000732
  -0.000000370  -0.000000641   0.479075308

ATOMIC_POSITIONS (angstrom)
Zr               1.8537816679       -0.0066656678       -0.0042354871
Zr              -0.9326634716        1.6020891642       -0.0042354871
Zr               2.8900524088        5.0057177869       -0.0041905879
Zr               4.5088334147       -0.0046352705        1.8481591264
Zr              -2.2584309693        3.9024468697        1.8481591264
Zr               1.5609804573        2.7036973944        1.8481859058
Ni              -0.0025836183       -0.0044749581        1.8476906674
Te              -0.0024679053        4.4071991135       -0.0042801351
Te               3.8179805379        2.2014627822       -0.0042801351
End final coordinates

     Writing config-only to output data dir ./tmp/Zr6NiTe2.save/ :
     XML data file

     Final scf calculation at the relaxed structure.
     The G-vectors are recalculated for the final unit cell
     Results may differ from those at the preceding step.

     Using Slab Decomposition

     bravais-lattice index     =            4
     lattice parameter (alat)  =      14.6159  a.u.
     unit-cell volume          =    1265.2369 (a.u.)^3
     number of atoms/cell      =            9
     number of atomic types    =            3
     number of electrons       =        46.00
     number of Kohn-Sham states=           28
     kinetic-energy cutoff     =      60.0000  Ry
     charge density cutoff     =     360.0000  Ry
     scf convergence threshold =      1.0E-08
     mixing beta               =       0.4000
     number of iterations used =            8  plain     mixing
     press convergence thresh. =      5.0E-01
     Exchange-correlation= PBE
                           (   1   4   3   4   0   0   0)

     celldm(1)=  14.615898  celldm(2)=   0.000000  celldm(3)=   0.482583
     celldm(4)=   0.000000  celldm(5)=   0.000000  celldm(6)=   0.000000

     crystal axes: (cart. coord. in units of alat)
               a(1) = (   0.988303  -0.000038  -0.000001 )
               a(2) = (  -0.494185   0.855877  -0.000001 )
               a(3) = (  -0.000000  -0.000001   0.479075 )

     reciprocal axes: (cart. coord. in units 2 pi/alat)
               b(1) = (  1.011858  0.584249  0.000002 )
               b(2) = (  0.000045  1.168419  0.000002 )
               b(3) = (  0.000002  0.000003  2.087355 )

     PseudoPot. # 1 for Zr read from file:
     /home/tauqeer/Zr6MTe2/sudopoten/Zr.pbe-mt_fhi.upf
     MD5 check sum: d7174933297848aa528ce1e54352b3ca
     Pseudo is Norm-conserving, Zval =  4.0
     Generated using FHI98PP, converted with fhi2upf.x v.5.0.2
     Using radial grid of  539 points,  3 beta functions with:
                l(1) =   0
                l(2) =   2
                l(3) =   3

     PseudoPot. # 2 for Ni read from file:
     /home/tauqeer/Zr6MTe2/sudopoten/Ni.pbe-mt_fhi.upf
     MD5 check sum: c94771b9de4a0d900f7ebca65c7a7b16
     Pseudo is Norm-conserving, Zval = 10.0
     Generated using FHI98PP, converted with fhi2upf.x v.5.0.2
     Using radial grid of  525 points,  3 beta functions with:
                l(1) =   1
                l(2) =   2
                l(3) =   3

     PseudoPot. # 3 for Te read from file:
     /home/tauqeer/Zr6MTe2/sudopoten/Te.pbe-mt_fhi.upf
     MD5 check sum: 85962a6ee3e6345fb8c79b5fb43653bb
     Pseudo is Norm-conserving, Zval =  6.0
     Generated using FHI98PP, converted with fhi2upf.x v.5.0.2
     Using radial grid of  549 points,  3 beta functions with:
                l(1) =   1
                l(2) =   2
                l(3) =   3

     atomic species   valence    mass     pseudopotential
     Zr                4.00    91.22400     Zr( 1.00)
     Ni               10.00    58.69340     Ni( 1.00)
     Te                6.00   127.60000     Te( 1.00)

      2 Sym. Ops. (no inversion) found

   Cartesian axes

     site n.     atom                  positions (alat units)
         1        Zr     tau(   1) = (   0.2396801  -0.0008618  -0.0005476  )
         2        Zr     tau(   2) = (  -0.1205864   0.2071381  -0.0005476  )
         3        Zr     tau(   3) = (   0.3736621   0.6472018  -0.0005418  )
         4        Zr     tau(   4) = (   0.5829584  -0.0005993   0.2389531  )
         5        Zr     tau(   5) = (  -0.2919982   0.5045572   0.2389531  )
         6        Zr     tau(   6) = (   0.2018231   0.3495678   0.2389566  )
         7        Ni     tau(   7) = (  -0.0003340  -0.0005786   0.2388926  )
         8        Te     tau(   8) = (  -0.0003191   0.5698178  -0.0005534  )
         9        Te     tau(   9) = (   0.4936363   0.2846327  -0.0005534  )

     number of k points=    24  Gaussian smearing, width (Ry)=  0.0100
                       cart. coord. in units 2pi/alat
        k(    1) = (   0.0000000   0.0000000   0.0000000), wk =   0.0312500
        k(    2) = (   0.0000004   0.0000007   0.5218386), wk =   0.0625000
        k(    3) = (  -0.0000008  -0.0000013  -1.0436773), wk =   0.0312500
        k(    4) = (   0.0000113   0.2921047   0.0000004), wk =   0.1250000
        k(    5) = (   0.0000117   0.2921054   0.5218390), wk =   0.1250000
        k(    6) = (   0.0000105   0.2921034  -1.0436769), wk =   0.1250000
        k(    7) = (  -0.0000226  -0.5842095  -0.0000008), wk =   0.0625000
        k(    8) = (  -0.0000222  -0.5842088   0.5218378), wk =   0.1250000
        k(    9) = (  -0.0000234  -0.5842108  -1.0436780), wk =   0.0625000
        k(   10) = (   0.2529758   0.4381669   0.0000008), wk =   0.0625000
        k(   11) = (   0.2529762   0.4381676   0.5218394), wk =   0.0625000
        k(   12) = (   0.2529750   0.4381656  -1.0436765), wk =   0.0625000
        k(   13) = (  -0.2529532   0.1460426  -0.0000000), wk =   0.0625000
        k(   14) = (   0.0000109   0.2921041  -0.5218382), wk =   0.1250000
        k(   15) = (  -0.2529528   0.1460433   0.5218386), wk =   0.1250000
        k(   16) = (  -0.2529539   0.1460412  -1.0436773), wk =   0.0625000
        k(   17) = (   0.5059064  -0.2920852   0.0000000), wk =   0.0312500
        k(   18) = (   0.5059067  -0.2920845   0.5218386), wk =   0.0625000
        k(   19) = (   0.5059056  -0.2920865  -1.0436773), wk =   0.0312500
        k(   20) = (  -0.2529419   0.4381473   0.0000004), wk =   0.1250000
        k(   21) = (  -0.2529423   0.4381467  -0.5218382), wk =   0.1250000
        k(   22) = (   0.2529415  -0.4381480  -0.5218390), wk =   0.1250000
        k(   23) = (   0.2529754   0.4381662  -0.5218378), wk =   0.0625000
        k(   24) = (  -0.2529411   0.4381487   1.0436776), wk =   0.1250000

     Initial potential from superposition of free atoms

     starting charge      54.1551, renormalised to      46.0000

     negative rho (up, down):  2.467E-04 0.000E+00
     Starting wfcs are  144 randomized atomic wfcs

     Self-consistent Calculation

[...]

     negative rho (up, down):  6.605E-06 0.000E+00

[...]

     iteration # 29     ecut=    60.00 Ry     beta= 0.40
     Davidson diagonalization with overlap
     c_bands:  1 eigenvalues not converged
     ethr =  3.71E-07,  avg # of iterations =  9.7

[...]

     total energy              =    -139.04599761 Ry
     estimated scf accuracy    <       0.00000004 Ry

     iteration # 42     ecut=    60.00 Ry     beta= 0.40
     Davidson diagonalization with overlap
     ethr =  4.38E-11,  avg # of iterations =  2.7

     End of self-consistent calculation

[...]

          k = 0.2530 0.4382-0.5218 (  9924 PWs)   bands (ev):

[...]

          k =-0.2529 0.4381 1.0437 (  9932 PWs)   bands (ev):

    -2.5153  -2.4959   3.5620   3.8894   4.6640   4.9814   5.1612   5.3600
     6.6289   7.5281   7.5453   7.6458   7.6833   7.9101   7.9552   8.5335
     8.6351   8.7595   8.8248   8.9067   8.9346   9.2505   9.2837   9.3457
    10.7209  10.8098  11.3125  11.3777

     the Fermi energy is    10.0170 ev

!    total energy              =    -139.04599761 Ry
     estimated scf accuracy    <          9.6E-09 Ry
     smearing contrib. (-TS)   =      -0.00322427 Ry
     internal energy E=F+TS    =    -139.04277334 Ry

     The total energy is F=E-TS. E is the sum of the following terms:
     one-electron contribution =      -8.17449879 Ry
     hartree contribution      =      36.27324937 Ry
     xc contribution           =     -32.78701836 Ry
     ewald contribution        =    -134.35450555 Ry

     convergence has been achieved in  42 iterations

     Forces acting on atoms (cartesian axes, Ry/au):

     atom    1 type  1   force =    -0.00011998    0.00020481   -0.00012681
     atom    2 type  1   force =     0.00023736   -0.00000150   -0.00012681
     atom    3 type  1   force =     0.00019046    0.00032988   -0.00013980
     atom    4 type  1   force =    -0.00014120   -0.00032699    0.00010047
     atom    5 type  1   force =    -0.00021259   -0.00028578    0.00010047
     atom    6 type  1   force =     0.00046298    0.00080190    0.00009068
     atom    7 type  2   force =    -0.00033110   -0.00057348    0.00021410
     atom    8 type  3   force =    -0.00008423   -0.00005059   -0.00005615
     atom    9 type  3   force =    -0.00000170   -0.00009825   -0.00005615

     Total force =     0.001400     Total SCF correction =     0.000071

     Computing stress (Cartesian axis) and pressure

          total   stress  (Ry/bohr**3)                   (kbar)     P=      -10.24
  -0.00007324  -0.00000025   0.00000002          -10.77       -0.04        0.00
  -0.00000025  -0.00007352   0.00000003           -0.04      -10.82        0.00
   0.00000002   0.00000003  -0.00006212            0.00        0.00       -9.14

     Writing all to output data dir ./tmp/Zr6NiTe2.save/ :
     XML data file, charge density, pseudopotentials, collected wavefunctions

     General routines

     Parallel routines

   This run was terminated on:  22: 4:22  17Aug2025

   JOB DONE.