     Program PWSCF v.7.4.1 starts on 19Aug2025 at 15:29:19

     Waiting for input...
     Reading input from standard input
Warning: card &CELL ignored
Warning: card / ignored

     Current dimensions of program PWSCF are:
     Max number of different atomic species (ntypx) = 10
     Max number of k-points (npk) =  40000
     Max angular momentum in pseudopotentials (lmaxx) =  4
     file Zr.pbe-mt_fhi.upf: wavefunction(s)  4f renormalized
     file Ni.pbe-mt_fhi.upf: wavefunction(s)  2p 4f renormalized
     file Te.pbe-mt_fhi.upf: wavefunction(s)  5d 4f renormalized
     Message from routine setup:
     no reason to have ecutrho>4*ecutwfc

     R & G space division:  proc/nbgrp/npool/nimage =       2
     Subspace diagonalization in iterative solution of the eigenvalue problem:
     a serial algorithm will be used

     Using Slab Decomposition

     bravais-lattice index     =            4
     lattice parameter (alat)  =      14.6159  a.u.
     unit-cell volume          =    1304.9057 (a.u.)^3
     number of atoms/cell      =            9
     number of atomic types    =            3
     number of electrons       =        46.00
     number of Kohn-Sham states=           28
     kinetic-energy cutoff     =      60.0000  Ry
     charge density cutoff     =     360.0000  Ry
     scf convergence threshold =      1.0E-06
     mixing beta               =       0.4000
     number of iterations used =            8  plain     mixing
     Exchange-correlation= PBE
                           (   1   4   3   4   0   0   0)

     celldm(1)=  14.615898  celldm(2)=   0.000000  celldm(3)=   0.482583
     celldm(4)=   0.000000  celldm(5)=   0.000000  celldm(6)=   0.000000

     crystal axes: (cart. coord. in units of alat)
               a(1) = (   1.000000   0.000000   0.000000 )
               a(2) = (  -0.500000   0.866025   0.000000 )
               a(3) = (   0.000000   0.000000   0.482583 )

     reciprocal axes: (cart. coord. in units 2 pi/alat)
               b(1) = (  1.000000  0.577350 -0.000000 )
               b(2) = (  0.000000  1.154701  0.000000 )
               b(3) = (  0.000000 -0.000000  2.072182 )

     PseudoPot. # 1 for Zr read from file:
     /home/tauqeer/Zr6MTe2/sudopoten/Zr.pbe-mt_fhi.upf
     MD5 check sum: d7174933297848aa528ce1e54352b3ca
     Pseudo is Norm-conserving, Zval =  4.0
     Generated using FHI98PP, converted with fhi2upf.x v.5.0.2
     Using radial grid of  539 points,  3 beta functions with:
                l(1) =   0
                l(2) =   2
                l(3) =   3

     PseudoPot. # 2 for Ni read from file:
     /home/tauqeer/Zr6MTe2/sudopoten/Ni.pbe-mt_fhi.upf
     MD5 check sum: c94771b9de4a0d900f7ebca65c7a7b16
     Pseudo is Norm-conserving, Zval = 10.0
     Generated using FHI98PP, converted with fhi2upf.x v.5.0.2
     Using radial grid of  525 points,  3 beta functions with:
                l(1) =   1
                l(2) =   2
                l(3) =   3

     PseudoPot. # 3 for Te read from file:
     /home/tauqeer/Zr6MTe2/sudopoten/Te.pbe-mt_fhi.upf
     MD5 check sum: 85962a6ee3e6345fb8c79b5fb43653bb
     Pseudo is Norm-conserving, Zval =  6.0
     Generated using FHI98PP, converted with fhi2upf.x v.5.0.2
     Using radial grid of  549 points,  3 beta functions with:
                l(1) =   1
                l(2) =   2
                l(3) =   3

     atomic species   valence    mass     pseudopotential
     Zr                4.00    91.22400     Zr( 1.00)
     Ni               10.00    58.69340     Ni( 1.00)
     Te                6.00   127.60000     Te( 1.00)

     12 Sym. Ops. (no inversion) found

   Cartesian axes

     site n.     atom                  positions (alat units)
         1        Zr     tau(   1) = (   0.2379872   0.0000000   0.0000000  )
         2        Zr     tau(   2) = (  -0.1189936   0.2061030   0.0000000  )
         3        Zr     tau(   3) = (   0.3810064   0.6599224   0.0000000  )
         4        Zr     tau(   4) = (   0.5923560   0.0000000   0.2412915  )
         5        Zr     tau(   5) = (  -0.2961780   0.5129954   0.2412915  )
         6        Zr     tau(   6) = (   0.2038220   0.3530300   0.2412915  )
         7        Ni     tau(   7) = (   0.0000000   0.0000000   0.2412915  )
         8        Te     tau(   8) = (  -0.0000000   0.5773503   0.0000000  )
         9        Te     tau(   9) = (   0.5000000   0.2886751   0.0000000  )

     number of k points=   183  Gaussian smearing, width (Ry)=  0.0200

     Number of k-points >= 100: set verbosity='high' to print them.

     Initial potential from superposition of free atoms

     starting charge      54.1551, renormalised to      46.0000

     negative rho (up, down):  2.551E-04 0.000E+00
     Starting wfcs are  144 randomized atomic wfcs

     Self-consistent Calculation

     iteration #  1     ecut=    60.00 Ry     beta= 0.40
     Davidson diagonalization with overlap
     ethr =  1.00E-02,  avg # of iterations =  4.1

     negative rho (up, down):  1.529E-04 0.000E+00

     total energy              =     -82.80485685 Ry
     estimated scf accuracy    <     181.58688909 Ry

[...]

     iteration # 19     ecut=    60.00 Ry     beta= 0.40
     Davidson diagonalization with overlap
     c_bands:  1 eigenvalues not converged
     c_bands:  1 eigenvalues not converged
     ethr =  5.42E-05,  avg # of iterations =  8.4

[...]

     iteration # 25     ecut=    60.00 Ry     beta= 0.40
     Davidson diagonalization with overlap
     c_bands:  1 eigenvalues not converged
     c_bands:  1 eigenvalues not converged
     c_bands:  1 eigenvalues not converged
     ethr =  3.02E-06,  avg # of iterations =  8.4

[...]

     total energy              =    -139.01263352 Ry
     estimated scf accuracy    <       0.00000170 Ry

     iteration # 34     ecut=    60.00 Ry     beta= 0.40
     Davidson diagonalization with overlap
     ethr =  3.40E-09,  avg # of iterations =  4.4

     End of self-consistent calculation

     Number of k-points >= 100: set verbosity='high' to print the bands.

     the Fermi energy is     9.8114 ev

!    total energy              =    -139.01263380 Ry
     estimated scf accuracy    <       0.00000002 Ry
     smearing contrib. (-TS)   =      -0.02065475 Ry
     internal energy E=F+TS    =    -138.99197906 Ry

     The total energy is F=E-TS. E is the sum of the following terms:
     one-electron contribution =     -11.29577188 Ry
     hartree contribution      =      37.25634639 Ry
     xc contribution           =     -32.63003441 Ry
     ewald contribution        =    -132.32251916 Ry

     convergence has been achieved in  34 iterations

     Writing all to output data dir ./tmp/Zr6NiTe2.save/ :
     XML data file, charge density, pseudopotentials, collected wavefunctions

     General routines

     Parallel routines

   This run was terminated on:  17:34:29  19Aug2025

   JOB DONE.